&CONTROL
   prefix        = 'MIL53Al_lp'
   calculation   = 'scf'
   tstress       = .true.
   tprnfor       = .true.
   pseudo_dir    = '/scratch/gent/vo/000/gvo00003/vsc41949/QE_scratch/pp'
   outdir        = './'
   lelfield      = .true.
   nberrycyc     = 1
/
&SYSTEM
   ibrav         = 0
   nat           = 76
   ntyp          = 4
   ecutwfc       = 44
   nosym         = .true.
   !occupations   = 'smearing'
   !smearing      = 'gaussian'
   !degauss       = 0.002
   vdw_corr      = 'dft-d3'
   dftd3_version = 4
/
&ELECTRONS
   electron_maxstep = 200
   conv_thr    = 1.0d-9
   efield_cart(1) = 0.001
   efield_cart(2) = 0.000
   efield_cart(3) = 0.000
/
&IONS
   ion_dynamics = 'bfgs'
/
ATOMIC_SPECIES
   Al  26.98154 Al.pbe-paw.UPF
   O   15.9994  O.pbe-paw.UPF 
   C   12.011   C.pbe-paw.UPF
   H   1.00797  H.pbe-paw.UPF

ATOMIC_POSITIONS {angstrom}
 O  6.685640406  4.323737452  8.612887035
 O  3.412060365  12.830777963  2.323186578
 O  6.744025814  12.852639678  3.966727069
 O  3.353706420  4.302009884  10.256483029
 O  1.159257795  14.063216796  1.818022815
 O  4.432780795  5.555651865  8.106123806
 O  1.202263762  2.778222758  10.523477952
 O  4.592656868  11.328435756  4.231716018
 O  5.513127242  5.768759511  10.587685860
 O  2.239626935  14.273600586  4.299671299
 O  5.686670855  11.562915555  1.829392126
 O  2.296221610  3.009865130  8.120808267
 O  5.628200401  3.034053434  10.750019998
 O  2.354757371  11.538848711  4.459151926
 O  5.571539124  14.297572503  1.991704470
 O  2.181167012  5.744669948  8.280038991
 O  1.260664616  11.306933057  2.056622854
 O  4.534179301  2.799602073  8.347757168
 O  1.100835871  5.534482939  10.761769110
 O  4.491247253  14.084511986  4.473345326
 H  6.671071146  4.714673622  7.729055685
 H  3.397336917  13.222447644  1.439684622
 H  6.729303051  13.243726954  4.850489678
 H  3.339157275  4.694173880  11.139771782
 H  2.201417985  15.751683749  0.384896018
 H  5.473920217  7.241421886  6.668146302
 H  2.144978220  0.790732417  11.580083270
 H  5.534874017  9.338169219  5.283855643
 H  4.586019719  7.780253866  11.605966265
 H  1.312796948  16.284634493  5.318803715
 H  4.648731719  9.877505895  0.413371550
 H  1.258070643  1.324220044  6.705767307
 H  4.589367165  1.346971994  12.162861517
 H  1.316879097  9.853156557  5.874513292
 H  4.644054529  16.307293305  0.970231962
 H  1.254190729  7.755825581  7.261427586
 H  2.203017433  9.317727581  1.003132295
 H  5.476248855  0.809365932  7.295196193
 H  2.142040611  7.221067268  12.198355526
 H  5.532708300  15.770359186  5.910864685
Al  1.691771176  4.264448599  9.424910508
Al  5.082156381  12.816020485  3.134960855
Al  1.750197344  12.793291959  3.154950462
Al  5.023725911  4.287178165  9.444504281
 C  1.296370114  16.329096167  0.202010806
 C  4.569098298  7.819758051  6.487039642
 C  1.214546461  0.432651526  12.019172150
 C  4.604868907  8.981018692  5.724616821
 C  5.516230687  8.132238151  12.050040114
 C  2.243078846  16.636478824  5.762837213
 C  5.550664249  9.293854612  0.232359565
 C  2.159900175  0.740419707  6.524729096
 C  5.491473242  0.764051551  12.345375610
 C  2.218749352  9.269315495  6.055258478
 C  5.574672692  16.660083944  0.527680506
 C  2.184351982  8.107660168  6.817146856
 C  1.272981414  8.960456427  0.562521580
 C  4.546122435  0.452203484  6.854684549
 C  1.237172480  7.799248726  12.379679334
 C  4.627925705  16.348653609  6.092263938
 C  6.749513880  15.927183700  0.749039008
 C  3.358890044  7.373634599  7.036426409
 C  0.038630744  1.162297776  11.796839384
 C  3.429297981  9.711938067  5.504597461
 C  6.690812486  7.398360249  11.830568991
 C  3.417568087  15.902506548  5.543195651
 C  0.097326943  9.691093025  0.782953870
 C  3.370600213  1.183064516  7.075071455
 C  6.712342453  14.686459200  1.580558865
 C  3.321920444  6.133289724  7.868507518
 C  0.071383247  2.399788809  10.961913722
 C  3.461880409  10.949833542  4.670264684
 C  6.653879212  6.157669005  10.998994903
 C  3.380453342  14.662183145  4.711090246
 C  0.129849634  10.928576808  1.617894178
 C  3.403308102  2.420932204  7.909437381

CELL_PARAMETERS {angstrom}
   6.663920     0.045485    -0.000061  
   0.117744    17.057679     0.000041  
  -0.000081     0.000004    12.579639

K_POINTS automatic
   6 2 2   1 1 1
