&CONTROL
   prefix        = 'UiO66'
   calculation   = 'scf'
   tstress       = .TRUE.
   tprnfor       = .TRUE.
   pseudo_dir    = '/scratch/gent/vo/000/gvo00003/vsc41949/QE_scratch/pp'
   outdir        = './'
   disk_io       = 'low'
   
   lelfield = .TRUE.
   nberrycyc = 1
/

&SYSTEM
   ibrav         = 0
   nat           = 456
   ntyp          = 4
   ecutwfc       = 44
   nosym         = .TRUE.
   vdw_corr      = 'dft-d3'
   dftd3_version = 4
/

&ELECTRONS
   electron_maxstep = 200
   conv_thr = 1.000000D-9
   efield_cart(1) = 0.001000
   efield_cart(2) = 0.000000
   efield_cart(3) = 0.000000
/

&IONS
   ion_dynamics = 'bfgs'
/

ATOMIC_SPECIES 
C	12.0107	C.pbe-paw.UPF
H	1.00794	H.pbe-paw.UPF
O	15.9994	O.pbe-paw.UPF
Zr	91.224	Zr.pbe-paw.UPF

ATOMIC_POSITIONS {angstrom}
Zr	20.8896010396	20.8896011827	2.49984583329
Zr	-1.32902276559e-08	-3.28493959483e-08	18.3897530636
Zr	2.49984569771	20.8896011435	9.19807157404e-08
Zr	18.3897554058	-2.26046028774e-08	20.8895987337
Zr	-1.88709839203e-09	2.49984572747	2.68623877804e-08
Zr	20.8896011304	18.3897555188	5.10080034536e-08
Zr	-3.22636966397e-08	10.4448005861	12.944645059
Zr	20.8896010523	10.4448005505	7.94495363131
Zr	2.49984565889	10.4448005797	10.4447993194
Zr	18.3897554522	10.4448005688	10.4447994323
Zr	-4.84487579649e-08	12.9446462522	10.4447993033
Zr	20.8896011219	7.94495484414	10.4447994491
Zr	10.444800586	-1.11056496868e-08	12.9446450799
Zr	10.4448004442	20.8896011211	7.94495361008
Zr	12.9446462085	-1.28641361614e-08	10.4447992936
Zr	7.94495479799	-2.29969721062e-08	10.4447994628
Zr	10.4448005447	2.49984569609	10.444799339
Zr	10.4448004903	18.3897555105	10.4447993927
Zr	10.4448005518	10.4448005902	2.49984578187
Zr	10.444800485	10.4448005608	18.3897530738
Zr	12.9446462311	10.4448006273	5.21748938507e-08
Zr	7.94495473319	10.4448005209	20.8895987325
Zr	10.4448004893	12.9446462701	6.66287250348e-08
Zr	10.4448005246	7.9449548116	20.8895987387
O	19.4816095831	19.4816096876	1.40799193487
O	1.40799157858	1.40799157218	1.40799198179
O	1.4079914248	19.4816096106	19.4816068578
O	19.4816095801	1.40799150577	19.4816068692
O	19.4816096004	9.03680909413	11.852791394
O	1.40799149245	11.8527921617	11.8527912475
O	1.40799151861	9.03680903341	9.03680745894
O	19.4816095837	11.8527921422	9.03680757247
O	9.03680903174	19.4816096676	11.8527913826
O	11.8527921397	1.40799153087	11.8527912582
O	11.8527920574	19.4816096479	9.03680754536
O	9.03680896808	1.4079915483	9.03680748592
O	9.03680901903	9.03680904161	1.40799201933
O	11.8527921147	11.8527921839	1.40799189545
O	11.8527920925	9.03680906561	19.4816068485
O	9.03680895851	11.8527921308	19.481606839
O	1.96257289676	20.8269140056	3.56720873452
O	18.9270276388	0.0626871420174	3.56720856472
O	18.9270280889	20.8269140874	17.3223900971
O	1.96257294732	0.0626870733294	17.3223900014
O	3.56720836163	1.96257367289	20.8269116608
O	3.56720827781	18.9270271318	0.0626872067767
O	17.3223926047	18.9270273874	20.8269117753
O	17.3223926816	1.96257366486	0.0626870054843
O	20.8269138922	3.56720835294	1.96257412819
O	0.0626872322571	3.56720816565	18.9270243931
O	20.8269137714	17.3223928487	18.9270246365
O	0.0626872547309	17.3223927241	1.96257382749
O	0.0626870983056	1.96257284274	17.3223899466
O	20.8269139931	18.9270280704	17.3223901637
O	0.0626870998049	18.9270278225	3.56720855035
O	20.8269139289	1.96257312545	3.56720869015
O	1.96257378045	3.56720833692	20.8269116457
O	18.9270271939	3.56720838156	0.0626871972608
O	18.9270271728	17.3223927677	20.8269118035
O	1.96257357439	17.3223926613	0.0626869634834
O	3.56720818334	0.0626872021305	18.9270245567
O	3.56720825427	20.8269138855	1.962574242
O	17.3223926628	0.0626873359723	1.96257375242
O	17.3223927836	20.8269139161	18.9270245358
O	1.96257290633	10.3821135645	14.0120080956
O	18.9270280879	10.5074877561	14.0120081472
O	18.9270275932	10.3821135102	6.87759094489
O	1.96257297905	10.5074878373	6.87759066518
O	3.56720824008	12.4073745843	10.3821123052
O	3.56720839421	8.48222683463	10.5074865861
O	17.3223925795	8.48222701408	10.3821124845
O	17.3223927397	12.407374424	10.5074863904
O	20.8269139281	14.0120089695	12.4073734112
O	0.0626872088797	14.0120090163	8.48222541913
O	20.8269137393	6.87759220645	8.48222546053
O	0.0626873116334	6.87759242757	12.407373803
O	0.0626870986406	12.4073738729	6.87759081943
O	20.8269138776	8.48222734891	6.87759084509
O	0.0626871447197	8.48222778776	14.0120082185
O	20.8269140466	12.4073737885	14.0120079716
O	1.96257356809	14.0120091025	10.3821123396
O	18.9270273321	14.0120090227	10.5074865154
O	18.9270270778	6.87759226016	10.3821125084
O	1.96257376849	6.87759217825	10.5074864134
O	3.56720821899	10.5074879655	8.48222516709
O	3.56720819071	10.3821133895	12.4073736058
O	17.3223928628	10.5074879266	12.4073736226
O	17.3223925789	10.3821133346	8.48222570591
O	12.4073737728	20.8269141419	14.0120079343
O	8.48222781858	0.062687178381	14.0120082833
O	8.4822272293	20.8269139258	6.8775908369
O	12.4073737646	0.06268708128	6.87759077202
O	14.0120090684	1.96257355673	10.382112319
O	14.0120089435	18.9270273929	10.5074864767
O	6.87759218674	18.9270271898	10.3821124969
O	6.87759215259	1.96257381623	10.5074864819
O	10.3821133358	3.56720822072	12.4073736509
O	10.5074879288	3.56720826756	8.4822252235
O	10.3821132837	17.3223926416	8.48222563207
O	10.5074878562	17.32239292	12.407373548
O	10.5074877928	1.96257303001	6.87759069225
O	10.3821134018	18.9270276904	6.87759094871
O	10.5074877177	18.9270280967	14.0120080872
O	10.3821135254	1.96257290963	14.0120081083
O	12.4073745815	3.56720828392	10.3821123404
O	8.48222678084	3.56720842199	10.507486599
O	8.48222689334	17.3223926484	10.3821124766
O	12.4073743612	17.322392812	10.5074863638
O	14.0120089356	0.0626872456925	8.48222539902
O	14.0120089222	20.8269140228	12.4073733475
O	6.87759244022	0.0626873561982	12.4073738983
O	6.87759209068	20.8269137965	8.48222551673
O	12.4073739444	10.3821135538	3.56720852909
O	8.48222745761	10.5074879082	3.56720870837
O	8.48222763754	10.3821134761	17.3223899516
O	12.4073736082	10.5074877158	17.3223900901
O	14.012008842	12.4073744659	20.8269117354
O	14.0120091595	8.48222715414	0.062687209616
O	6.87759209276	8.48222669804	20.8269116813
O	6.87759223677	12.4073745532	0.062686989261
O	10.3821133858	14.0120090929	1.96257391192
O	10.5074877433	14.0120089053	18.9270247131
O	10.3821132415	6.87759234644	18.9270243906
O	10.5074880591	6.87759227965	1.96257407668
O	10.5074876628	12.4073737191	17.3223901168
O	10.3821134421	8.48222774458	17.3223899566
O	10.5074878747	8.48222746957	3.56720869787
O	10.3821134579	12.4073739281	3.5672085139
O	12.407374186	14.0120090056	20.8269117383
O	8.48222689273	14.0120091158	0.0626871860522
O	8.48222677212	6.87759209083	20.8269117052
O	12.4073747334	6.8775923546	0.062686983797
O	14.0120088255	10.5074878456	18.9270246621
O	14.0120090317	10.3821134714	1.96257389131
O	6.87759225233	10.5074880452	1.96257410292
O	6.87759227466	10.3821132485	18.9270244017
O	19.8528360198	19.8528361365	19.852833504
O	1.0367649061	1.03676489678	19.8528335406
O	19.8528361735	1.03676497018	1.03676523448
O	1.03676491162	19.852836202	1.03676521892
O	19.8528361063	9.40803561474	9.4080342682
O	1.03676490927	11.4815655758	9.40803415933
O	19.8528360869	11.481565642	11.4815647079
O	1.03676492918	9.40803563913	11.4815646133
O	9.4080355239	19.8528361764	9.40803425508
O	11.4815655393	1.0367649362	9.40803416698
O	9.40803561516	1.03676494336	11.4815646338
O	11.4815656015	19.8528361573	11.4815646791
O	9.40803553734	9.40803559717	19.8528335371
O	11.4815655381	11.4815656296	19.8528334772
O	9.40803559652	11.4815655977	1.03676521488
O	11.4815655939	9.40803566901	1.03676522711
C	4.23418976654	20.7495381933	4.23418930794
C	16.655410942	0.140062987505	4.23418886182
C	16.6554113214	20.7495383517	16.6554095779
C	4.23418972458	0.14006285691	16.6554095182
C	4.23418976013	4.23418968724	20.7495356882
C	4.23418951796	16.6554112013	0.140063032311
C	16.6554112542	16.6554114914	20.7495359081
C	16.6554113156	4.23418970132	0.140062978406
C	20.7495381853	4.23418988329	4.23418927793
C	0.140062809593	4.23418970463	16.655409439
C	20.7495382907	16.6554113621	16.6554096457
C	0.140062950505	16.6554110014	4.23418885068
C	4.23418967544	10.3047377307	14.678988692
C	16.655411248	10.5848634947	14.6789885498
C	16.655411057	10.3047376316	6.21061052099
C	4.23418979583	10.5848636905	6.21061020706
C	4.23418953767	14.6789905574	10.3047362759
C	4.23418971576	6.21061080769	10.5848623221
C	16.6554112248	6.21061096748	10.3047364582
C	16.6554113615	14.6789903369	10.5848622739
C	20.7495383109	14.6789905203	14.6789885133
C	0.140062941374	14.6789906352	6.21061041688
C	20.7495381086	6.21061070488	6.21061037252
C	0.140062840736	6.21061085722	14.6789886904
C	14.6789905147	20.749538368	14.6789884341
C	6.21061094411	0.140062929634	14.6789888052
C	6.21061054667	20.7495381093	6.21061046317
C	14.6789904964	0.140062960596	6.21061033823
C	14.6789904887	4.23418960755	10.3047363504
C	14.6789902885	16.6554114465	10.5848622568
C	6.21061095279	16.6554112598	10.3047363712
C	6.21061075806	4.23418972034	10.5848623513
C	10.3047377243	4.23418973522	14.6789886907
C	10.5848636066	4.23418981768	6.21061020711
C	10.3047375705	16.6554110579	6.21061055645
C	10.5848633619	16.6554113266	14.6789885356
C	14.6789905733	10.304737689	4.23418908671
C	6.21061056739	10.5848637106	4.23418903979
C	6.21061087453	10.3047376672	16.6554094058
C	14.6789904205	10.5848634436	16.6554096593
C	14.6789902173	14.6789903797	20.7495358229
C	14.6789905409	6.2106110362	0.140062961817
C	6.21061080419	6.21061074275	20.7495357502
C	6.2106109083	14.6789904821	0.140063041656
C	10.3047376266	14.6789906772	4.23418903232
C	10.5848633306	14.678990438	16.6554096269
C	10.3047377035	6.21061090535	16.6554094175
C	10.584863633	6.21061059521	4.23418905667
C	5.58881822555	20.7399600686	3.87344380482
C	15.3007829284	0.14964111642	3.87344466419
C	15.300782703	20.7399602003	17.0161549382
C	5.5888184553	0.149641032552	17.0161551642
C	3.87344477877	5.58881838689	20.7399574241
C	3.87344552935	15.3007828598	0.149640627861
C	17.0161561505	15.3007826768	20.7399576442
C	17.0161566535	5.58881865625	0.149641925823
C	20.7399600401	3.87344538729	5.5888181623
C	0.149640935201	3.87344579399	15.3007807441
C	20.7399602343	17.0161556861	15.3007806719
C	0.149641066524	17.0161564705	5.58881827195
C	0.149640975944	5.58881846165	17.0161552466
C	20.739960145	15.3007827402	17.0161549349
C	0.14964109135	15.3007829755	3.87344455811
C	20.739960069	5.58881835126	3.87344393428
C	5.5888183559	3.87344500151	20.739957432
C	15.300782872	3.87344545478	0.1496405563
C	15.3007825557	17.0161560635	20.7399576299
C	5.58881855827	17.0161568267	0.149641998421
C	3.87344563694	0.149640998211	15.3007807825
C	3.87344540274	20.7399600605	5.58881819118
C	17.0161564962	0.149641093995	5.58881829252
C	17.0161555502	20.7399602961	15.3007806241
C	5.58881843476	10.2951595574	14.3182428057
C	15.3007827601	10.5944415921	14.3182433216
C	15.3007828448	10.2951594313	6.57135480688
C	5.58881820889	10.5944418143	6.57135538907
C	3.87344535795	16.0336188765	10.2951579993
C	3.87344484718	4.85598209693	10.5944398677
C	17.0161566595	4.85598194967	10.2951581419
C	17.0161561534	16.0336190688	10.5944411666
C	20.7399601788	14.3182458751	16.0336174646
C	0.149641066052	14.3182454074	4.85598106436
C	20.7399600499	6.57135527086	4.85598132304
C	0.14964096404	6.57135459327	16.0336173411
C	0.149641087688	16.0336187637	6.57135490839
C	20.7399599687	4.85598219416	6.57135539803
C	0.149640977605	4.85598206411	14.3182427007
C	20.7399602166	16.0336189925	14.3182433525
C	5.58881849811	14.3182449868	10.2951579609
C	15.300782674	14.3182455408	10.5944398123
C	15.3007828102	6.57135507005	10.2951580995
C	5.58881835968	6.57135557631	10.5944412453
C	3.87344526271	10.5944417817	4.85598115054
C	3.8734457484	10.2951595398	16.0336173157
C	17.0161556991	10.5944415626	16.0336175592
C	17.0161563651	10.2951595512	4.85598116764
C	16.0336189078	20.7399602767	14.3182434413
C	4.85598205398	0.149641062401	14.3182425889
C	4.85598212919	20.7399599829	6.57135521046
C	16.0336186838	0.149641111849	6.57135501551
C	14.3182449302	5.58881856519	10.2951580491
C	14.3182454539	15.3007827187	10.5944398016
C	6.57135504969	15.3007828606	10.2951580092
C	6.57135555799	5.58881842036	10.5944412613
C	10.2951595522	3.87344579615	16.0336173223
C	10.5944416883	3.87344536765	4.8559811868
C	10.2951594769	17.016156448	4.85598115412
C	10.5944414222	17.0161557624	16.0336175123
C	10.594441728	5.58881827836	6.57135544347
C	10.2951593791	15.300782905	6.57135477066
C	10.5944414569	15.3007827883	14.3182432568
C	10.2951595556	5.58881848896	14.3182428473
C	16.033618822	3.87344546712	10.2951580881
C	4.85598208321	3.87344489934	10.5944398838
C	4.85598188788	17.0161567035	10.2951580406
C	16.0336189824	17.0161561987	10.5944411603
C	14.3182454706	0.149641075581	4.85598104939
C	14.3182457249	20.7399602327	16.0336174404
C	6.57135446093	0.149641043834	16.0336173843
C	6.57135537987	20.7399600455	4.85598129375
C	16.0336187479	10.2951595584	3.87344444535
C	4.85598221962	10.5944418142	3.87344401211
C	4.85598196603	10.2951594772	17.0161553989
C	16.0336188557	10.5944415612	17.0161547695
C	14.3182454298	16.0336190477	20.7399575889
C	14.3182448911	4.85598202053	0.149640544344
C	6.57135548252	4.85598207201	20.7399574622
C	6.57135512127	16.0336188571	0.149642001501
C	10.2951594372	14.3182453873	5.58881825516
C	10.5944414173	14.3182459216	15.3007806572
C	10.2951595766	6.57135455312	15.3007807816
C	10.5944417103	6.57135530303	5.58881813188
C	10.5944414296	16.033618974	17.0161548364
C	10.295159514	4.85598202787	17.0161554006
C	10.5944417251	4.85598224107	3.87344400598
C	10.2951594888	16.033618802	3.87344446524
C	16.033618866	14.3182454738	20.7399575997
C	4.85598193232	14.3182450362	0.149640635181
C	4.85598207302	6.57135562453	20.7399574541
C	16.0336188733	6.57135503418	0.149641917996
C	14.318245816	10.5944415356	15.3007806283
C	14.3182453752	10.2951594941	5.58881827918
C	6.57135528716	10.594441795	5.58881814146
C	6.57135450591	10.2951595529	15.3007807683
C	3.17799029496	20.7966136158	3.17798870293
C	17.711611449	0.0929875697456	3.17798927744
C	17.7116108087	20.7966137101	17.7116102026
C	3.17799003932	0.0929874542567	17.7116099144
C	3.17798920283	3.17798939013	20.7966112976
C	3.17798950139	17.711612085	0.0929874284488
C	17.711611814	17.7116118536	20.7966114804
C	17.711612007	3.17798951424	0.0929874232567
C	20.7966135899	3.17799013291	3.17798894454
C	0.0929874602546	3.17799027008	17.7116100943
C	20.7966136114	17.7116110336	17.7116101069
C	0.0929875155851	17.7116112833	3.17798902397
C	3.17799013944	10.3518131503	13.6227881794
C	17.7116109057	10.5377881442	13.6227881319
C	17.7116114138	10.3518130829	7.26681023043
C	3.17799012373	10.5377882418	7.26681061561
C	3.17798941616	13.6227898094	10.3518119404
C	3.17798921753	7.26681122961	10.5377868009
C	17.7116120503	7.26681105576	10.3518121382
C	17.7116118268	13.6227898866	10.5377867576
C	20.7966136791	13.6227906445	13.6227883253
C	0.0929874933142	13.622790646	7.2668104961
C	20.7966134981	7.26681069148	7.26681048391
C	0.0929875137701	7.26681014081	13.6227878807
C	13.6227905198	20.7966137615	13.622788374
C	7.26681005444	0.092987572524	13.6227878329
C	7.26681069421	20.7966135308	7.26681037232
C	13.6227906187	0.0929875065853	7.26681050268
C	13.6227896925	3.1779895557	10.3518119676
C	13.6227898346	17.7116119147	10.5377867276
C	7.26681108429	17.7116120324	10.3518121018
C	7.2668111824	3.17798924453	10.5377868421
C	10.3518131145	3.1779902361	13.6227881404
C	10.5377881877	3.17799012357	7.26681058615
C	10.3518130092	17.7116113454	7.26681035501
C	10.5377880626	17.7116110673	13.6227881742
C	13.6227905153	10.3518131599	3.17798909553
C	7.26681045031	10.5377883007	3.17798882329
C	7.26681021012	10.3518130525	17.711610167
C	13.6227906386	10.5377880806	17.7116099799
C	13.6227899374	13.622789795	20.7966113958
C	13.6227895595	7.26681096028	0.0929874111488
C	7.26681114203	7.26681135974	20.7966113637
C	7.26681118557	13.6227898472	0.0929874324864
C	10.3518130783	13.6227906882	3.17798895552
C	10.5377879919	13.6227906393	17.7116099306
C	10.3518130535	7.26681020413	17.7116102439
C	10.5377882696	7.26681055649	3.17798888575
H	5.84958168194	20.7411800155	2.81606588987
H	15.0400190851	0.148421237032	2.81606532478
H	15.0400193455	20.7411800591	18.0735329444
H	5.84958136632	0.148421209554	18.0735327423
H	2.81606598263	5.84958195904	20.74117715
H	2.81606556402	15.0400188481	0.148420377044
H	18.0735350462	15.040019174	20.7411774362
H	18.0735348515	5.84958180523	0.148422739305
H	20.7411799927	2.81606561042	5.84958195551
H	0.14842106212	2.81606525677	15.040016527
H	20.7411801987	18.073535671	15.0400169155
H	0.148421126636	18.0735351813	5.84958153249
H	0.148421177987	5.84958139478	18.0735326608
H	20.7411799938	15.040019413	18.0735329949
H	0.148421209073	15.0400190777	2.81606535343
H	20.7411800059	5.84958174515	2.81606587233
H	5.8495819512	2.81606591865	20.7411771661
H	15.0400188902	2.81606569003	0.148420323082
H	15.0400190009	18.0735352654	20.7411774107
H	5.84958169011	18.0735348046	0.1484227999
H	2.81606529648	0.148421109492	15.0400165378
H	2.81606551387	20.7411800399	5.84958193541
H	18.0735350763	0.148421156071	5.84958160607
H	18.073535609	20.7411802753	15.0400168865
H	5.8495813287	10.296379387	13.2608654994
H	15.0400194008	10.5932217085	13.260865171
H	15.0400190346	10.2963792389	7.62873408174
H	5.84958165266	10.593221906	7.62873363212
H	2.81606559256	16.294382885	10.2963777109
H	2.81606593452	4.59521853665	10.5932195699
H	18.0735348128	4.59521882859	10.2963778762
H	18.0735351509	16.2943826098	10.5932218902
H	20.741180104	13.260866194	16.2943812458
H	0.148421126521	13.2608665321	4.59521782425
H	20.7411800015	7.62873499767	4.59521756257
H	0.148421101396	7.62873532382	16.2943815577
H	0.148421200255	16.2943826609	7.62873397017
H	20.7411798147	4.59521884203	7.62873375214
H	0.148421170364	4.59521914043	13.2608654802
H	20.7411801335	16.2943823331	13.2608651986
H	5.84958163068	13.2608669274	10.2963776408
H	15.0400191158	13.2608665925	10.5932194994
H	15.0400188259	7.62873495723	10.2963778058
H	5.84958195488	7.62873459184	10.5932220006
H	2.81606557173	10.5932218094	4.59521743663
H	2.81606520635	10.2963793962	16.2943815711
H	18.0735355077	10.5932216126	16.2943813157
H	18.073535154	10.2963794919	4.59521785657
H	16.2943822784	20.7411802059	13.2608651324
H	4.59521915064	0.148421258304	13.2608655448
H	4.59521874311	20.7411798493	7.62873380777
H	16.2943825424	0.148421221685	7.62873395946
H	13.2608669036	5.84958169853	10.296377718
H	13.2608665385	15.0400191816	10.5932194807
H	7.62873488457	15.0400188632	10.2963777217
H	7.6287345512	5.84958198502	10.5932220329
H	10.2963793965	2.8160652617	16.2943815622
H	10.5932217063	2.81606557446	4.59521744631
H	10.2963794086	18.0735352086	4.59521791201
H	10.5932214656	18.0735356088	16.2943813007
H	10.5932218198	5.84958168822	7.62873361536
H	10.2963791945	15.040019026	7.62873407438
H	10.5932215683	15.0400194668	13.2608651738
H	10.2963793601	5.84958138947	13.2608655007
H	16.2943828211	2.81606561842	10.2963777875
H	4.59521850382	2.81606595723	10.5932196004
H	4.59521878241	18.0735348968	10.2963777766
H	16.2943825482	18.0735352292	10.5932218794
H	13.2608664663	0.148421116969	4.59521776696
H	13.2608661788	20.7411801617	16.2943812107
H	7.62873534791	0.148421182411	16.2943816141
H	7.62873484947	20.7411800016	4.59521756671
H	16.2943825907	10.2963794785	2.81606549316
H	4.59521878593	10.5932219006	2.81606565475
H	4.59521908709	10.2963792288	18.0735326316
H	16.2943822325	10.5932216542	18.0735330655
H	13.2608664526	16.2943825559	20.7411773578
H	13.2608669892	4.59521888622	0.148420297773
H	7.6287345772	4.59521853132	20.7411772041
H	7.62873491804	16.2943828879	0.148422795795
H	10.2963793498	13.2608665513	5.84958151337
H	10.5932214551	13.2608661912	15.0400168726
H	10.2963794381	7.6287353616	15.0400165602
H	10.5932217446	7.62873491345	5.84958188798
H	10.5932215174	16.2943822963	18.073533023
H	10.2963792731	4.59521912892	18.0735326425
H	10.5932218148	4.59521883242	2.81606568996
H	10.2963794079	16.2943827071	2.81606547345
H	16.294382457	13.2608665958	20.7411773747
H	4.59521883541	13.2608669204	0.148420386678
H	4.59521850653	7.62873457218	20.7411771932
H	16.2943828609	7.62873505675	0.14842271938
H	13.2608661727	10.5932215662	15.0400168825
H	13.2608664955	10.2963794013	5.84958159613
H	7.62873484902	10.5932218264	5.84958187281
H	7.6287353143	10.2963794105	15.0400165315
H	18.9230364433	18.9230365414	1.96656517534
H	18.9230364518	1.96656461413	18.9230336409
H	1.96656454654	18.9230365071	18.9230336176
H	1.96656463086	1.96656460404	1.96656509887
H	18.9230364448	8.47823600897	12.4113646566
H	18.9230364419	12.4113653061	8.47823438162
H	1.96656466936	8.47823597766	8.47823426447
H	1.96656453984	12.4113652333	12.4113644681
H	8.47823594295	18.9230365164	12.4113646513
H	8.47823589461	1.9665646709	8.47823428367
H	12.411365244	18.9230365172	8.47823435622
H	12.411365231	1.96656456579	12.4113644652
H	8.47823592577	8.47823597697	1.96656524571
H	8.478235907	12.4113652646	18.9230335784
H	12.4113652366	8.47823601593	18.9230336194
H	12.4113652294	12.4113652736	1.96656504367

K_POINTS automatic
   1 1 1   1 1 1

CELL_PARAMETERS {angstrom}
20.8896011863	4.49855864752e-09	4.34144824162e-08
-3.23187427954e-08	20.8896012165	-3.50171404717e-09
-9.13750296118e-08	-5.2244304184e-08	20.8895987235

