&CONTROL
   prefix        = 'UiO66'
   calculation   = 'scf'
   tstress       = .TRUE.
   tprnfor       = .TRUE.
   pseudo_dir    = '/scratch/gent/vo/000/gvo00003/vsc41949/QE_scratch/pp'
   outdir        = './'
   disk_io       = 'low'
   
   lelfield = .TRUE.
   nberrycyc = 1
/

&SYSTEM
   ibrav         = 0
   nat           = 294
   ntyp          = 4
   ecutwfc       = 44
   nosym         = .TRUE.
   vdw_corr      = 'dft-d3'
   dftd3_version = 4
/

&ELECTRONS
   electron_maxstep = 200
   conv_thr = 1.000000D-9
   efield_cart(1) = 0.001000
   efield_cart(2) = 0.000000
   efield_cart(3) = 0.000000
/

&IONS
   ion_dynamics = 'bfgs'
/

ATOMIC_SPECIES 
C	12.0107	C.pbe-paw.UPF
H	1.00794	H.pbe-paw.UPF
O	15.9994	O.pbe-paw.UPF
Zr	91.224	Zr.pbe-paw.UPF

ATOMIC_POSITIONS {angstrom}
O	18.9062353577	3.58555898902	10.3697889856
O	1.97374421294	17.2944371242	10.3697888935
O	1.97374402151	3.585558986	10.510219236
O	18.9062355644	17.2944371518	10.5102193181
O	10.3697746749	18.9062512224	3.58555937581
O	10.3697744572	1.97374487262	17.2944494214
O	10.5102044285	1.97374396556	3.58555973484
O	10.5102044371	18.906252099	17.2944491504
O	3.5855591459	10.3697824998	18.9062658325
O	17.2944202392	10.3697825689	1.97374284618
O	3.58555872976	10.5102130598	1.97374353468
O	17.2944207125	10.5102129424	18.9062652804
O	3.58555873452	18.9062525939	10.3697896402
O	17.2944208538	1.97374350209	10.3697894564
O	3.58555858272	1.97374354905	10.5102186615
O	17.2944210138	18.9062525915	10.5102186852
O	18.906234223	10.3697819009	3.58555883955
O	1.97374515201	10.3697818159	17.2944498463
O	1.97374439604	10.5102136556	3.58555917784
O	18.906235048	10.5102137063	17.2944496486
O	10.3697739597	3.58555927816	18.9062649211
O	10.3697740126	17.2944367835	1.97374391114
O	10.5102050182	3.58555877808	1.97374464406
O	10.5102049303	17.2944372862	18.9062642311
O	1.03897152092	1.03897204709	11.47449302
O	19.841007998	19.8410240195	11.4744931056
O	19.8410078983	1.03897208951	9.40551524967
O	1.03897167339	19.8410239851	9.4055152653
O	11.4744783534	1.03897152403	1.03897206785
O	11.4744784248	19.8410244942	19.8410366489
O	9.40550072526	19.8410241983	1.03897197025
O	9.40550068879	1.03897187421	19.8410368597
O	1.03897125151	11.4744867172	1.0389722637
O	19.841008168	11.4744867985	19.8410364374
O	1.03897155846	9.40550889387	19.8410365975
O	19.8410079014	9.40550887239	1.03897216591
O	3.56338537095	20.8204799551	8.4790335305
O	17.316594214	0.0595160077774	8.47903327935
O	17.3165941579	20.8204799913	12.4009749727
O	3.56338541076	0.0595159998357	12.4009748238
O	8.47901975464	3.56338405377	20.8204936709
O	8.47901954967	17.3166120707	0.0595153053937
O	12.4009595152	17.3166119903	20.8204926387
O	12.4009593458	3.56338404016	0.0595158218048
O	20.8204637902	8.47902736061	3.56338676427
O	0.059515536356	8.47902719555	17.3166220766
O	20.8204645801	12.4009684295	17.3166219269
O	0.0595147357573	12.4009682781	3.56338674245
O	20.8204636917	3.56338700803	8.4790333658
O	0.0595157565122	17.3166090371	8.47903320045
O	20.8204639387	17.3166089936	12.4009751117
O	0.0595155285139	3.56338712695	12.4009749236
O	3.56338433921	8.47902766241	20.8204935426
O	17.3165952126	8.4790273957	0.0595153947482
O	17.3165951271	12.4009682065	20.8204925801
O	3.56338434631	12.4009680165	0.0595157673404
O	8.47901979277	20.8204794679	3.56338533464
O	8.47901954101	0.0595164837325	17.316623569
O	12.4009594946	20.8204803453	17.3166233705
O	12.4009594202	0.0595156120293	3.56338524837
O	1.41075487578	19.469240706	11.8432463609
O	19.4692245999	1.41075532145	11.843246346
O	19.4692248039	19.4692407784	9.036762008
O	1.41075479535	1.4107553206	9.03676190284
O	11.8432314404	1.41075506375	19.4692534092
O	11.8432314993	19.4692409063	1.41075524071
O	9.0367476417	19.4692413849	19.4692533097
O	9.03674757955	1.41075470268	1.41075557904
O	19.4692244959	11.8432398014	1.41075535387
O	1.41075487024	11.8432397996	19.4692532771
O	19.4692249219	9.03675585325	19.4692531884
O	1.41075455617	9.03675579533	1.41075563384
O	14.0055763225	20.8193122958	18.920594986
O	6.87440264924	0.0606840824428	18.9205951196
O	6.87440295829	20.8193118724	1.95941371392
O	14.0055761722	0.0606836079393	1.95941357581
O	18.9205680768	14.0055836307	20.8193244152
O	18.9205681479	6.87441194189	0.06068398443
O	1.95941139176	6.87441222434	20.8193246606
O	1.95941133726	14.0055833773	0.0606841856262
O	20.8192957799	18.9205817582	14.005590885
O	0.0606837904016	18.9205817901	6.87441742089
O	20.8192956465	1.9594142344	6.87441758997
O	0.0606836655355	1.95941427752	14.0055905948
O	20.8192962654	14.0055849504	18.9205939411
O	0.0606835047433	6.87441060318	18.9205940168
O	20.8192958849	6.87441083375	1.95941474581
O	0.0606831055705	14.0055847531	1.95941470163
O	14.0055758785	18.9205840068	20.8193250277
O	6.87440316102	18.9205840738	0.0606833181908
O	6.87440338746	1.959412029	20.8193253883
O	14.0055756316	1.95941195073	0.0606835204053
O	18.9205673623	20.8193119989	14.0055902365
O	18.9205674378	0.0606839405078	6.87441803902
O	1.95941216007	20.8193119318	6.87441826056
O	1.95941210844	0.0606839787869	14.0055899715
H	1.96730830706	1.96730885219	8.47410073229
H	18.9126712961	18.9126872433	8.47410082493
H	18.9126710579	1.96730884621	12.405907504
H	1.96730839093	18.9126871674	12.4059075314
H	8.47408738032	1.9673085622	1.96730973293
H	8.47408738995	18.9126875323	18.9126991878
H	12.4058917254	18.9126869244	1.96730925958
H	12.4058916458	1.96730901673	18.9126993408
H	1.96730819218	8.47409530683	1.9673097306
H	18.9126712928	8.47409531576	18.9126991199
H	1.96730858946	12.4059002996	18.9126992624
H	18.9126707566	12.4059003217	1.96730932831
H	3.95188295223	10.2206728779	16.9281280631
H	16.9280973197	10.6593224262	16.9281274256
H	16.9280964184	10.2206730676	3.95188062773
H	3.95188213959	10.659322278	3.95188141178
H	16.9280972696	3.95188163779	10.2206857672
H	16.9280974777	16.9281144542	10.6593223841
H	3.95188231758	16.9281144703	10.2206858627
H	3.95188213498	3.95188171988	10.6593219528
H	10.2206649913	16.9281135018	3.95188176864
H	10.6593138751	16.9281144478	16.9281262968
H	10.2206648069	3.95188261641	16.9281270943
H	10.6593137284	3.95188163366	3.95188260059
H	7.62585756622	15.0323705834	0.134288033849
H	13.2541217678	5.84762569154	0.134288329233
H	13.2541217546	15.0323703655	20.7457180079
H	7.62585765838	5.84762558216	20.7457214291
H	0.134288403791	7.62586358531	15.0323779389
H	0.134287846837	13.254132318	5.84763103749
H	20.7456910745	13.2541323253	15.0323776772
H	20.7456900192	7.62586357254	5.84763089726
H	15.0323511308	0.134288943113	7.62586504497
H	5.84762868403	0.13428923896	13.2541434702
H	15.0323508973	20.7457064271	13.2541434093
H	5.84762850348	20.7457057613	7.6258652192
H	15.0323533323	7.62586112407	0.134288356732
H	5.84762642554	13.254134731	0.134288277742
H	15.0323530997	13.2541347342	20.7457178726
H	5.8476262972	7.62586125614	20.7457212665
H	7.62585856562	0.134289431279	15.0323807734
H	13.2541208265	0.134288808001	5.84762816475
H	13.2541207708	20.7457065446	15.0323804431
H	7.62585864996	20.7457055899	5.8476281326
H	0.134288311497	15.0323645219	7.62586614481
H	0.134288500507	5.84763180692	13.2541424019
H	20.745690736	15.0323643344	13.2541423929
H	20.7456898706	5.84763152737	7.62586621425
H	2.8127826675	16.2882319752	0.148235758875
H	18.0671963374	4.5917631588	0.148235656992
H	18.0671964754	16.2882323468	20.7317728266
H	2.81278290482	4.59176367805	20.7317713778
H	0.148236854788	2.81278755456	16.2882410692
H	0.148236964632	18.0672080118	4.59176674996
H	20.7317419638	18.0672081517	16.2882414699
H	20.7317417696	2.81278771065	4.59176712975
H	16.288226015	0.148237663156	2.81279137693
H	4.59175265375	0.148237925489	18.0672168075
H	16.2882262407	20.7317575039	18.067216928
H	4.59175315111	20.7317572303	2.8127916685
H	16.2882246338	2.81278756005	0.148235460211
H	4.59175398046	18.0672079631	0.148235343704
H	16.2882249796	18.067208123	20.7317731216
H	4.59175442692	2.81278784789	20.7317717064
H	2.81278257995	0.148237866554	16.288239308
H	18.0671964795	0.148237835129	4.59176848614
H	18.0671965401	20.7317573237	16.2882396833
H	2.81278283214	20.7317572875	4.59176896576
H	0.148236514593	16.2882355896	2.81279139438
H	0.148236673103	4.59175958209	18.0672168191
H	20.7317423274	16.2882359113	18.0672169834
H	20.7317419781	4.59175998434	2.81279158511
C	4.23142693785	14.6726583455	0.133268425107
C	16.6485524391	6.20733709182	0.133268397289
C	16.6485524197	14.6726585326	20.746739137
C	4.231427024	6.20733740332	20.7467400575
C	0.133268828807	4.23143127047	14.6726659871
C	0.133268799607	16.6485646788	6.2073421411
C	20.7467103151	16.648564681	14.672666186
C	20.7467098154	4.23143124429	6.20734235353
C	14.6726481144	0.13326938806	4.23143173055
C	6.20733085984	0.133269868977	16.6485768325
C	14.6726481975	20.7467260145	16.6485767546
C	6.20733114398	20.746725383	4.23143189534
C	14.6726482046	4.2314290047	0.133268278599
C	6.20733071533	16.6485668962	0.133268075459
C	14.6726483692	16.6485668906	20.7467393665
C	6.2073309706	4.23142912408	20.7467403229
C	4.2314277037	0.133269751223	14.6726660554
C	16.6485517319	0.133269587721	6.2073420467
C	16.6485516783	20.7467258238	14.6726662119
C	4.23142777508	20.7467254886	6.20734235799
C	0.133268294765	14.6726582221	4.23143279355
C	0.13326868795	6.20733726018	16.6485758006
C	20.7467106954	14.6726583877	16.6485757759
C	20.7467100016	6.20733744963	4.23143285508
C	5.58597704687	20.7417498705	6.56872995189
C	15.2940024943	0.138244875738	6.56872975607
C	15.2940023842	20.7417504727	14.311278671
C	5.5859770494	0.138245187435	14.311278696
C	6.56872191267	5.58597730776	20.7417652475
C	6.56872179238	15.294018754	0.138243741165
C	14.311257496	15.2940186867	20.7417628759
C	14.3112574779	5.58597725398	0.138243946994
C	20.7417342783	6.56872757734	5.58598179019
C	0.138244201229	6.56872755745	15.2940269165
C	20.7417351507	14.3112683144	15.2940268212
C	0.138243799764	14.3112682793	5.58598178603
C	20.7417341947	5.58598067447	6.56873064341
C	0.138244054487	15.2940152822	6.56873055049
C	20.7417349637	15.2940152276	14.3112779565
C	0.138244258644	5.58598077433	14.3112779307
C	5.58597575581	6.56872596682	20.7417651444
C	15.294003753	6.56872580437	0.138243976458
C	15.2940036716	14.311270022	20.7417627892
C	5.58597573253	14.3112699867	0.138243886584
C	6.56872260594	20.7417497838	5.5859802416
C	6.56872248942	0.138245282654	15.294028537
C	14.3112568051	20.741750544	15.294028384
C	14.3112568385	0.138244797246	5.58598013369
C	13.6168176461	20.7910615598	17.7047746888
C	7.26316136974	0.0889348318021	17.7047748444
C	7.26316165697	20.7910608991	3.17523398398
C	13.6168175535	0.088934204387	3.17523387213
C	17.7047475325	13.6168256341	20.7910740338
C	17.7047476058	7.26316996682	0.0889339432579
C	3.17523191707	7.26317025152	20.7910747397
C	3.17523188727	13.6168254351	0.0889341531019
C	20.7910453055	17.7047607913	13.6168331477
C	0.0889341682059	17.7047608288	7.26317516705
C	20.7910450237	3.17523517348	7.26317535325
C	0.0889340435137	3.1752352519	13.616832931
C	20.7910458622	13.616826764	17.7047732553
C	0.0889339163244	7.26316884109	17.7047733543
C	20.7910452313	7.26316904044	3.17523540353
C	0.0889333654161	13.6168266012	3.17523537883
C	13.6168172727	17.7047637637	20.7910743579
C	7.26316179041	17.7047638295	0.0889335608898
C	7.26316201828	3.17523225812	20.7910751405
C	13.6168170901	3.17523220298	0.0889338761794
C	17.7047465107	20.7910612444	13.6168325314
C	17.7047465851	0.0889345485534	7.26317573136
C	3.17523298273	20.7910611136	7.26317599579
C	3.17523296923	0.08893459927	13.6168323513
C	3.17128307693	10.3166682108	17.7087274662
C	17.7086970253	10.5633272121	17.7087270065
C	17.7086962863	10.3166683252	3.17128120697
C	3.17128242071	10.5633271876	3.17128181764
C	17.7086972582	3.17128182573	10.3166771788
C	17.7086974554	17.7087142768	10.5633310215
C	3.17128231086	17.7087142683	10.3166772406
C	3.17128214104	3.17128187268	10.5633308426
C	10.3166603475	17.7087131277	3.17128220609
C	10.5633186287	17.7087139111	17.7087260269
C	10.3166601948	3.17128294633	17.7087266083
C	10.5633186078	3.17128215799	3.17128285596
C	16.0273939356	20.7337585632	17.0098457344
C	4.85258511767	0.14623696579	17.0098456919
C	4.85258542719	20.7337581806	3.87016286994
C	16.0273938452	0.146236671581	3.87016264251
C	17.009824881	16.027403131	20.7337730807
C	17.0098248129	4.85259250274	0.146234967894
C	3.87015451148	4.85259284135	20.7337726858
C	3.87015434317	16.0274029251	0.146234977198
C	20.7337431322	17.0098362962	16.0274115429
C	0.146235824482	17.0098362249	4.85259679469
C	20.7337427439	3.87015957501	4.85259702139
C	0.146235851328	3.87015949445	16.0274113209
C	20.7337433287	16.0274042707	17.0098455096
C	0.14623576339	4.85259137266	17.0098454213
C	20.7337428497	4.85259158828	3.87016306814
C	0.146235574701	16.0274040958	3.87016294326
C	16.0273935543	17.0098369288	20.7337732241
C	4.85258554019	17.0098368418	0.146234773722
C	4.85258581893	3.87015904904	20.7337728476
C	16.0273933704	3.87015883171	0.146234875335
C	17.0098246624	20.7337584643	16.0274109163
C	17.0098246648	0.146236769485	4.85259735682
C	3.87015472295	20.7337582203	4.85259768265
C	3.87015454674	0.146236923026	16.0274107324
Zr	12.9370225005	1.12113736222e-07	1.06133942489e-07
Zr	7.94295642813	1.73169049942e-07	2.03633917318e-07
Zr	1.08513825594e-07	12.9370312859	1.19647058466e-07
Zr	1.62579459066e-07	7.94296420926	1.64761507913e-07
Zr	1.31443750958e-07	1.49580691249e-07	12.9370380647
Zr	1.96196124026e-07	1.65643687323e-07	7.94297013741
Zr	2.50403415926	2.32566671985e-07	10.4400041491
Zr	18.3759452813	2.38624951848e-07	10.4400041059
Zr	10.4399895059	2.50403441853	4.9066816058e-07
Zr	10.43998951	18.3759615358	-9.95296906214e-09
Zr	20.8799789729	10.439997837	2.50403614954
Zr	4.79755920087e-07	10.4399977854	18.3759725739
Zr	1.63303933313e-07	2.50403557483	10.4400041225
Zr	3.3614626209e-07	18.3759604255	10.4400041222
Zr	2.50403374496	10.4399977884	4.24547589932e-07
Zr	18.3759456874	10.4399978522	20.8800083422
Zr	10.4399896198	20.8799955318	2.50403570653
Zr	10.439989475	5.54225876085e-07	18.3759730556

K_POINTS automatic
   1 1 1   1 1 1

CELL_PARAMETERS {angstrom}
20.8799790891	6.03206873365e-08	6.04944920307e-08
9.32423457146e-08	20.8799956476	5.5239727641e-08
7.26096153903e-08	8.17998851431e-08	20.8800083541

