&CONTROL
   prefix        = 'UiO66'
   calculation   = 'scf'
   tstress       = .TRUE.
   tprnfor       = .TRUE.
   pseudo_dir    = '/scratch/gent/vo/000/gvo00003/vsc41949/QE_scratch/pp'
   outdir        = './'
   disk_io       = 'low'
   
   lelfield = .TRUE.
   nberrycyc = 1
/

&SYSTEM
   ibrav         = 0
   nat           = 438
   ntyp          = 4
   ecutwfc       = 44
   nosym         = .TRUE.
   vdw_corr      = 'dft-d3'
   dftd3_version = 4
/

&ELECTRONS
   electron_maxstep = 200
   conv_thr = 1.000000D-9
   efield_cart(1) = 0.001000
   efield_cart(2) = 0.000000
   efield_cart(3) = 0.000000
/

&IONS
   ion_dynamics = 'bfgs'
/

ATOMIC_SPECIES 
C	12.0107	C.pbe-paw.UPF
H	1.00794	H.pbe-paw.UPF
O	15.9994	O.pbe-paw.UPF
Zr	91.224	Zr.pbe-paw.UPF

ATOMIC_POSITIONS {angstrom}
Zr	18.4134949862	10.4750174259	10.3897048461
Zr	18.4015484781	20.9099369128	20.7888303082
Zr	8.07192067907	10.4704076394	0.0376286952222
Zr	7.94670217203	0.0126303055989	10.3998545517
Zr	2.51264963928	10.4527474176	10.3998652422
Zr	2.41585082805	20.8967939948	0.0376218614265
Zr	12.9882106063	10.485644173	20.7887998968
Zr	12.9478320437	0.0185381619308	10.389721922
Zr	10.4720566538	18.4164487281	10.389712923
Zr	10.4674880046	8.07484573276	0.0376127686384
Zr	20.9070276279	18.4044605159	20.7888067837
Zr	20.9116513321	7.97805406632	10.399867767
Zr	10.4529335504	10.455874583	18.2808300727
Zr	10.4827100727	20.9099499561	7.89498754103
Zr	20.9070039873	10.4856691562	7.89499241746
Zr	0.00642511944887	0.00937978770615	18.2808493923
Zr	10.4497881561	2.51560913735	10.3998484306
Zr	10.4827264319	12.9911202643	20.7888219173
Zr	20.8938614816	2.41878170475	0.0376533783574
Zr	20.917555748	12.9791794617	10.3897091341
Zr	10.382554402	10.3854706476	2.4422680701
Zr	10.4794541472	20.9132083529	12.8919476883
Zr	20.9102288806	10.4824345865	12.8919620496
Zr	0.0768339704932	0.0797527257077	2.44228352077
O	11.4836696055	11.4865960279	19.7633425359
O	11.483676304	1.05400444088	9.35899050126
O	1.05105149235	11.4866248831	9.35899439988
O	1.07456185999	1.07749361628	19.6506004745
O	19.9060857189	19.9090088521	19.7633497774
O	19.8777075045	9.43960332993	9.35899157959
O	9.4366468299	19.8806483601	9.35898366734
O	9.38481131536	9.38772561839	19.6505734987
O	11.5113476647	19.8812837637	11.4246914144
O	11.5612523065	9.41704202375	1.04335104027
O	1.07366220758	19.803027352	1.04336488398
O	1.04947436172	9.41288697455	11.4373568369
O	19.8783206375	11.5143133319	11.4246865078
O	19.8000869731	1.07660421975	1.04340741181
O	9.4140975346	11.5641840567	1.04337890167
O	9.40991589425	1.05244343175	11.4373439312
O	9.02800520361	9.03092365147	1.21821675845
O	9.06370181181	19.5090512495	11.8029161729
O	19.5060875314	9.06667413978	11.802924507
O	19.5345707077	19.5374798639	1.38627260651
O	1.43136159573	1.43429217649	1.21823573232
O	1.42396380152	11.8582675961	11.8029355672
O	11.8553026476	1.42693518319	11.8029331601
O	11.8551951584	11.8581121461	1.38627257177
O	9.04194881753	1.42042043651	8.99550708834
O	9.06195428869	11.8755795647	19.3837652331
O	19.4886854798	1.42874924424	19.3837853762
O	19.5051920293	11.8874260468	8.98231678256
O	1.41748207359	9.04489649053	8.9955124782
O	1.42582092551	19.4916171447	19.3837427401
O	11.8726633642	9.06488287465	19.3837380153
O	11.8844705944	19.5081388167	8.98231735992
O	8.50071725851	17.3504372691	10.3319419559
O	18.9519883602	17.3515164166	20.736772133
O	18.9517130365	6.89911818596	10.3372888799
O	12.4097848528	3.59444501086	10.3372640698
O	12.4378050087	14.0440402175	20.736769184
O	1.98693096203	14.0168775753	10.3319115753
O	8.48837046828	3.5789528518	10.4678613929
O	8.52234423491	14.05471551	0.036829880474
O	18.9264953047	3.56110300631	0.0893500987225
O	18.9533085952	14.044030096	10.4535614722
O	12.4362974158	17.3515111031	10.4535798895
O	12.4348391701	6.93252018683	0.0892911903227
O	1.96536333895	17.3124500593	0.0368058030221
O	1.97116259179	6.88642776536	10.4679186295
O	10.3813491971	8.44312626856	17.2902544292
O	10.4167283104	18.9345146008	6.82658116585
O	20.8517277562	8.53399414471	6.83522003801
O	20.8795392701	18.9799495623	17.2133797288
O	17.3394890188	10.4118144791	8.4426405913
O	17.3750891344	20.8321585086	18.8214345805
O	6.89089395427	10.1838581609	18.9474031392
O	6.91356898204	20.8658351355	8.42726956862
O	10.5101103112	12.4157005283	17.2134081413
O	10.5096065584	1.95964896524	6.83521317374
O	0.0709001810548	12.4327112226	6.82659403048
O	0.0779935387252	2.02212330924	17.2902845464
O	3.57554984143	10.3797297678	12.3853634407
O	3.64203609876	0.0988722387373	1.85403437619
O	13.9948398015	10.4132815676	1.96140695517
O	14.0414958198	20.8576566434	12.3391558984
O	10.3387087574	12.3702862705	3.54863819726
O	10.3919920959	1.96148615455	13.9774088183
O	20.842549584	12.4466176432	13.9510079317
O	0.0121967747932	2.04369106146	3.45810789989
O	3.5741364186	10.5016095506	8.42724746102
O	3.56852109516	0.281360717117	18.947425434
O	14.0145937688	10.5634491268	18.8213783458
O	14.0218572705	0.0816860339814	8.44265614651
O	10.4471862293	8.42154326172	3.45807141465
O	10.5469410701	18.9490284547	13.9510235438
O	0.0673419397492	8.50379270224	13.9774450795
O	0.149038812172	18.99691204	3.54863140797
O	17.3482104678	10.5378321088	12.3391402433
O	17.366522686	0.0802937568262	1.9614514678
O	6.81736405069	10.3663609596	1.85404031243
O	6.8837401806	0.0857079196791	12.3853057609
O	17.3475046973	8.50365158794	10.3319121053
O	17.34863931	18.9548715545	20.7367773488
O	6.89618384705	18.9546397763	10.3372509261
O	3.59151288404	12.4127150456	10.3373007863
O	14.0411634455	12.4406886693	20.7367749506
O	14.0139410307	1.98986281978	10.3319379159
O	3.57600851503	8.49132181326	10.4679008082
O	3.55815246133	18.9294195297	0.089324245334
O	14.0518160123	8.52530028538	0.0367879240608
O	14.041077932	18.956254484	10.4535802219
O	17.348568676	12.4392468962	10.4535618382
O	17.3095260571	1.96830988848	0.0368536884064
O	6.92955365422	12.4377448538	0.0892956968703
O	6.88347760408	1.97410783191	10.4678864326
O	8.44020395001	10.3842882338	17.2902426438
O	8.5310273727	20.8546971853	6.83522434112
O	18.9315731952	10.4197114655	6.82657548349
O	18.9769659801	20.8825492561	17.2134149274
O	10.4088407107	17.3424268468	8.44264591328
O	10.1809707806	6.89379307634	18.9474020437
O	20.8292016895	17.3780601662	18.821388636
O	20.8628416307	6.91654848942	8.42727609948
O	12.4127102157	10.513119768	17.2133645566
O	12.4297571595	0.0738788387437	6.82660199814
O	1.95668040897	10.5125949616	6.83519767464
O	2.01918306969	0.0809679629893	17.2902818796
O	10.3767299704	3.5785549451	12.3853152998
O	10.4103586901	13.9977573368	1.96143127199
O	0.0959661804969	3.64495031176	1.85406213416
O	20.854671242	14.0444651156	12.3391414121
O	12.3673772113	10.3416348785	3.54862356925
O	12.4436417439	20.8455598225	13.951016704
O	1.95848767029	10.3950005645	13.9774648492
O	2.04076841218	0.0151207137302	3.45807344757
O	10.4986027295	3.57711516543	8.42725438276
O	10.5604710335	14.017573576	18.8214324385
O	0.278444816607	3.57144140649	18.9474370847
O	0.0787221177057	14.0248087668	8.44264838112
O	8.41861153904	10.450100962	3.45809400553
O	8.50080141592	0.070353841434	13.9774013433
O	18.9460500106	10.5499581522	13.9510135341
O	18.9939965633	0.151949094011	3.54865629621
O	10.5348472134	17.3511774023	12.3391600465
O	10.3634812858	6.82028467964	1.85402657865
O	0.0773767683181	17.3694460266	1.96141820485
O	0.0827119767967	6.88673727831	12.3853432173
C	3.18642102072	7.27605088461	10.4994819393
C	3.18029733048	17.7129985869	0.0954369003878
C	13.6512616217	7.31036968244	0.0954145908741
C	13.6512953298	17.7412649106	10.4839082685
C	7.27310031273	3.18936622641	10.4994511686
C	7.30741205569	13.65416693	0.0954348232079
C	17.7100739681	3.18324318529	0.0954698139696
C	17.7383193641	13.6542458919	10.4838917629
C	3.20252308495	13.6294095135	10.30588751
C	13.6264784642	3.20545602224	10.3058828305
C	13.6533679537	13.6562513682	20.7147299712
C	7.28513399941	17.7379354706	10.3058794349
C	17.7350077088	7.28806877447	10.3058820833
C	17.7364255074	17.7393083263	20.7147325901
C	10.5065809088	3.17900684688	7.21424517943
C	10.5655974329	13.6291041983	17.605715071
C	0.220808597148	3.21692590165	17.7141243532
C	0.109322327523	13.6453622381	7.22337167966
C	7.20633700622	10.3938657331	3.07386929745
C	7.28346470102	0.124238488767	13.5967117492
C	17.7335598111	10.5752993018	13.5551748999
C	17.7760129382	0.148245282104	3.17201488569
C	20.8547789192	7.31464046268	7.21426279986
C	20.8239888933	17.7665434615	17.6056785054
C	10.2385292936	7.24832429327	17.7140896718
C	10.3782463244	17.7218667296	7.22336685388
C	3.17603767847	10.5095816783	7.21423670495
C	3.21398637612	0.223775965962	17.7141140714
C	13.6261169535	10.5686220284	17.6056661549
C	13.6424091671	0.112303454023	7.22338030326
C	10.3909507521	7.20926652804	3.0738524064
C	10.5722715081	17.7365343163	13.5551942528
C	0.121222555998	7.28645564508	13.5967516772
C	0.145315475149	17.7789305497	3.17198341144
C	3.25304492802	0.0713682960032	3.07385837937
C	3.17582706206	10.34114111	13.59676712
C	13.6561361861	20.8202062585	13.5551886733
C	13.5853572055	10.3453231995	3.17197252545
C	0.0684337604554	3.25596661391	3.07388852141
C	20.8171836549	13.6591092244	13.5551737363
C	10.338126763	3.1788251645	13.5967163558
C	10.3423851734	13.5882688449	3.17199481984
C	7.3116719488	20.8577692818	7.21425859488
C	7.24540283716	10.2414674045	17.7140885658
C	17.7635627888	20.8270019795	17.6057193387
C	17.7189263332	10.3812330213	7.22336066684
C	20.8786636392	6.27364213902	6.14424180067
C	20.7731119505	16.7074012746	16.5573844445
C	10.1854728516	6.18190869934	16.6656717947
C	10.3194690755	16.6526305052	6.18027203538
C	10.4826271745	4.21999397349	6.14421650735
C	10.6163078642	14.6882537066	16.5574212867
C	0.273781258533	4.28334991388	16.6657080943
C	0.168053693956	14.714589008	6.18027055909
C	0.0588586185162	4.30259863687	4.138035633
C	20.768364674	14.7206566021	14.601647414
C	10.2483669686	4.22210946348	14.6666027341
C	10.2984878349	14.6498630618	4.2264549913
C	10.4004612951	6.16263821853	4.13800166187
C	10.6209893234	16.6749895221	14.6016753255
C	0.21089385352	6.24316137358	14.6666407157
C	0.189111757025	16.7173383584	4.22644595245
C	6.27068276058	20.8816728994	6.1442314147
C	6.17896670339	10.1884662735	16.6656849041
C	16.7044154495	20.7761882792	16.5574245032
C	16.6496950458	10.3224695667	6.1802632421
C	6.22967269972	16.67776511	10.2622129046
C	16.6748399839	6.23260330855	10.262211822
C	16.6816500233	16.6845341699	20.6800481975
C	4.21703046868	10.4856332922	6.1442111139
C	4.28039624865	0.276796877894	16.6656892219
C	14.685261206	10.6193975646	16.5573730709
C	14.7116429231	0.171051805538	6.18028385274
C	4.2420750406	6.22041285203	10.5490821385
C	4.24425519926	16.6622993623	0.144130240023
C	14.7019513927	6.2464028819	0.144119407451
C	14.7071167078	16.6854301941	10.531395912
C	6.15969711679	10.403418914	4.13801146795
C	6.24017940167	0.21393457041	14.666603496
C	16.6720083578	10.6240767975	14.6016441628
C	16.7144163034	0.192080992569	4.22647480041
C	4.25797398999	14.689590638	10.2622157076
C	14.6866637799	4.2609034581	10.2622128109
C	14.708142756	14.7110268241	20.6800471115
C	4.29966545129	0.0618375444407	4.13801342884
C	4.21912456097	10.2514009143	14.6666470755
C	14.7176791652	20.7714423388	14.6016722557
C	14.6469483204	10.3014597992	4.22643403775
C	6.21746415621	4.24502046394	10.549065549
C	6.24344593488	14.7048620048	0.14412799132
C	16.6593779692	4.24720575953	0.144149243229
C	16.6824837463	14.7100653282	10.5313860999
C	6.59356652928	15.3234354087	10.253039681
C	17.0441610717	15.3306090952	20.6727376893
C	17.0282421416	4.87582396485	10.2532833441
C	14.3332608238	5.61768240974	10.2532236229
C	14.3456306498	16.0649514837	20.6727501373
C	3.89407906563	16.0439192318	10.2529906559
C	6.57881979041	5.59938211225	10.5588417059
C	6.58904317893	16.0633454332	0.153116985481
C	17.0326734914	5.59873299189	0.155595387262
C	17.043824672	16.0643898967	10.5408386623
C	14.3457733127	15.3311059764	10.5408213532
C	14.3286543547	4.8948751762	0.155466209418
C	3.89865468196	15.3038159351	0.153129580304
C	3.88071930761	4.86605073807	10.5588428998
C	10.1826505447	6.55094214903	15.3115821467
C	10.3100847902	16.9963659788	4.8216091637
C	20.8894735425	6.65586207962	4.79525070316
C	20.7701182728	17.0608849848	15.2015157951
C	15.2984602063	10.30056	6.55573199147
C	15.3537422875	20.7561489593	16.9312904411
C	4.82103744972	10.1975951161	17.0128835108
C	4.88324179959	0.00938859027944	6.4849483079
C	10.6192227694	14.3347649234	15.2015533963
C	10.471792178	3.83776491427	4.79522832953
C	0.177398444438	14.3708416871	4.82161073084
C	0.27657655934	3.91432364985	15.3116158939
C	5.57643804684	10.2140761633	14.3197438576
C	5.658503962	0.0317230390108	3.79737736247
C	15.9986282818	10.3035486882	3.85193728649
C	16.0683010449	20.7702451523	14.2275217069
C	10.2862961332	14.3059174359	5.58499358634
C	10.2277738422	3.85072398413	16.0189361664
C	20.75133303	14.3672460313	15.9573608358
C	0.046117431046	3.92088001572	5.48730147371
C	5.57607951729	10.4559140078	6.48493572411
C	5.63833042781	0.2676723459	17.0128572408
C	16.0359276853	10.6394148389	16.931253797
C	16.0628752762	0.192939198585	6.55576506487
C	10.4131827969	6.54436444803	5.48726526761
C	10.6380294522	17.028405882	15.9573875126
C	0.231458599287	6.61453782262	16.0189778228
C	0.201308099784	17.061294045	5.58498139087
C	15.3213913333	10.6252890658	14.2274780996
C	15.3627397087	0.190001948154	3.85196578905
C	4.80086167832	10.4335577335	3.79735864955
C	4.88285843261	0.251244399753	14.3197306935
C	15.3205101586	6.59649620359	10.2529824825
C	15.3277253553	17.047045715	20.6727508044
C	4.8728945956	17.0311690345	10.2532299635
C	5.61475304577	14.3361867717	10.2532815194
C	16.0620676167	14.348514833	20.6727374795
C	16.0409925419	3.89700835629	10.2530431136
C	5.59643707402	6.5817672707	10.5588500538
C	5.59578351214	17.0355891022	0.155520700824
C	16.0604354166	6.59199720251	0.153177821584
C	16.0614404619	17.0467737704	10.5408437581
C	15.3281598991	14.3487211244	10.5408164283
C	15.3008937333	3.9016107729	0.153078269832
C	4.89191549101	14.331572462	0.155530839313
C	4.86310176709	3.88366720611	10.5588346551
C	6.5479727402	10.1856514815	15.3115876063
C	6.6529192014	20.8925028219	4.7952455245
C	16.9934442681	10.3131018285	4.82160363709
C	17.0579041934	20.7732261656	15.201556669
C	10.2975781071	15.3013968026	6.55574845568
C	10.1945694087	4.8239754475	17.0128491494
C	20.7530726295	15.3567318926	16.9312598559
C	20.9083734784	4.91459216938	6.48496329761
C	14.3317797546	10.6223423946	15.2015037378
C	14.3679115547	0.180440402426	4.82162046679
C	3.83481433917	10.4747866116	4.7952188755
C	3.91135281672	0.279632484362	15.3116020836
C	10.2110581757	5.57942779216	14.3197196908
C	10.3005452219	16.0015412382	3.85195066372
C	0.0287066860975	5.66143390764	3.79738631454
C	20.7671383886	16.0712757154	14.2274871519
C	14.302989945	10.2892628995	5.58496909142
C	14.3642612297	20.7544111273	15.9573846566
C	3.84776603911	10.230821462	16.0189886676
C	3.91792971338	0.0490953627046	5.487274239
C	10.4529072363	5.57904493108	6.48493188482
C	10.6363232994	16.0389243655	16.9312913721
C	0.264665925299	5.64128239311	17.0128882413
C	0.189984653099	16.065822376	6.555741819
C	6.54140955249	10.4161672103	5.48727905942
C	6.61157310711	0.234480089638	16.0189355622
C	17.0254153491	10.6411204832	15.9573579096
C	17.0583577218	0.204246832202	5.58501437624
C	10.6221719682	15.3243691709	14.2275204055
C	10.4305872956	4.8038008719	3.79735842159
C	0.186973282538	15.3656594084	3.85194656819
C	0.248179495388	4.88584237776	14.3197561959
H	8.48125900201	1.98111767174	8.44109584993
H	8.47779049199	12.4229146414	18.8403987659
H	18.9413399258	2.01289626508	18.8404115315
H	18.9480092525	12.4445825265	8.42093121817
H	1.97818057065	8.48420222763	8.4411069181
H	2.00996463793	18.944282194	18.840354824
H	12.4199893729	8.48072335623	18.8403580239
H	12.441629227	18.9509544495	8.42093529142
H	8.50286072484	18.9530783235	12.3617929436
H	18.950107375	8.50583426494	12.3617954901
H	18.9981119617	19.0010254362	1.98668906846
H	1.98478520335	12.4142654603	12.3618075206
H	12.4112943578	1.98775934857	12.3618082168
H	12.3916460304	12.394569207	1.98669423946
H	7.6517000476	15.0655818377	10.2531396171
H	18.1015863841	15.0704650527	20.6735937131
H	18.0842173426	4.60906759976	10.2536525707
H	13.2772849493	5.88443664691	10.2535470096
H	13.2882041934	16.3250931566	20.6736166269
H	2.83594449696	16.3017711325	10.2530541664
H	7.63626524928	5.85976726735	10.5565400157
H	7.64341380031	16.3363046322	0.150912700352
H	18.0928303994	5.84825789246	0.15757664016
H	18.1013233663	16.3246091506	10.5388408954
H	13.2882735442	15.0708876559	10.5388088915
H	13.2684969947	4.64534940259	0.157346558286
H	2.84428365635	15.0308568226	0.150936296798
H	2.82327362151	4.60566586186	10.5565422382
H	10.1725469559	7.60976140037	15.0585619542
H	10.3195834654	18.050268841	4.54701739887
H	20.8638884931	7.71679854	4.5511572129
H	20.779024728	18.1165109213	14.9341989408
H	15.0495098525	10.3013684807	7.6159670944
H	15.1031223265	20.7521837795	17.9909221887
H	4.54607262503	10.1970421152	18.0669949349
H	4.63417025455	20.9015792863	7.53804816337
H	10.6103106824	13.2791376404	14.9342422258
H	10.4973698093	2.77682665074	4.55114149646
H	0.167854727345	13.3169367843	4.5470283626
H	0.286670155785	2.85550546692	15.0585903317
H	5.8484515365	10.2216559438	13.2651718768
H	5.93672383499	0.0340635015393	2.74443981514
H	16.2474527239	10.3063786944	2.79195158774
H	16.3186027456	20.7766260458	13.1677783704
H	10.2781733707	13.251760729	5.85934014475
H	10.2509365207	2.79145021573	16.2711399505
H	20.7464430911	13.3114519311	16.2241424074
H	0.0630533215733	2.85975453135	5.73082276902
H	5.85352239949	10.4657066045	7.53804802191
H	5.9133203013	0.268204450729	18.0669621071
H	16.2865346545	10.6433887992	17.990888095
H	16.3118129971	0.19211274966	7.61600285451
H	10.3962436788	7.60549122769	5.73078025824
H	10.6429300359	18.0842011444	16.2241639717
H	0.208292027077	7.67381008775	16.2711876122
H	0.209477931723	18.1154524631	5.85931904468
H	15.0710989958	10.6188961236	13.1677328992
H	15.1139243035	0.187191330903	2.79197818088
H	4.52265454102	10.4312104223	2.74441755036
H	4.61081669104	0.243682511458	13.2651656502
H	15.0626559846	7.65462973912	10.2530409129
H	15.0675818745	18.104471417	20.6736176384
H	4.60613931956	18.0871447113	10.2535565945
H	5.88150690514	13.2802110806	10.2536477193
H	16.3222101712	13.2910888625	20.6735938355
H	16.2988447855	2.8388740383	10.2531473444
H	5.85682311165	7.63921269419	10.5565548386
H	5.84531362149	18.0957450497	0.157447247933
H	16.3333973502	7.64636723428	0.151018123291
H	16.3216573222	18.1042733035	10.5388496046
H	15.0679414566	13.2912216001	10.5388008842
H	15.027929742	2.84724119689	0.150839788632
H	4.64238401988	13.2714166347	0.157465773884
H	4.60271429285	2.82622226087	10.556527484
H	7.60678658196	10.1755309123	15.0585447769
H	7.7138591804	20.866939126	4.55116649145
H	18.0473493903	10.3226194914	4.54702288328
H	18.1135310104	20.7821425357	14.934245186
H	10.2983930134	15.0524544269	7.61598534819
H	10.1940143879	4.54899278353	18.0669557699
H	20.7491227112	15.1061198156	17.9908932113
H	20.8985982761	4.63714498935	7.53807475077
H	13.2761538334	10.6134399846	14.9341853777
H	13.3140091824	0.170936181303	4.54702535349
H	2.773878646	10.5003681425	4.55112005127
H	2.85253143848	0.28974160453	15.0585908512
H	10.2186429769	5.8514599484	13.2651524228
H	10.3033654834	16.2503596567	2.79196356479
H	0.0310381386756	5.93964266034	2.74444572709
H	20.7735096545	16.3215708286	13.1677423866
H	13.2488309295	10.2811215154	5.85930476775
H	13.3084656362	20.7495090191	16.2241605103
H	2.78849792772	10.2540037652	16.2712152989
H	2.85680063438	0.0660114535337	5.7307808616
H	10.4626845792	5.85649656034	7.53804209271
H	10.6403111079	16.2895404406	17.9909237844
H	0.265222763801	5.91626219584	18.0669958637
H	0.189184959803	16.3147694297	7.61597751011
H	7.60253359393	10.399226736	5.73080581544
H	7.6708484411	0.211301242962	16.2711307735
H	18.0812088178	10.6460086747	16.2241414573
H	18.1125135566	0.212376506801	5.85936444275
H	10.615770647	15.0740690783	13.1677769609
H	10.4282542034	4.52558634397	2.74441935696
H	0.18413192928	15.1168363471	2.79196078874
H	0.240596637977	4.61381168504	13.2651885652

K_POINTS automatic
   1 1 1   1 1 1

CELL_PARAMETERS {angstrom}
20.9019780572	0.0283866406419	4.0319195369e-08
0.0283877110858	20.901974247	-8.43928210787e-06
2.39903831639e-07	-8.44027303807e-06	20.8032192968

