&CONTROL
   prefix        = 'UiO66'
   calculation   = 'scf'
   tstress       = .TRUE.
   tprnfor       = .TRUE.
   pseudo_dir    = '/scratch/gent/vo/000/gvo00003/vsc41949/QE_scratch/pp'
   outdir        = './'
   disk_io       = 'low'
   
   lelfield = .TRUE.
   nberrycyc = 1
/

&SYSTEM
   ibrav         = 0
   nat           = 228
   ntyp          = 4
   ecutwfc       = 44
   nosym         = .TRUE.
   vdw_corr      = 'dft-d3'
   dftd3_version = 4
/

&ELECTRONS
   electron_maxstep = 200
   conv_thr = 1.000000D-9
   efield_cart(1) = 0.001000
   efield_cart(2) = 0.000000
   efield_cart(3) = 0.000000
/

&IONS
   ion_dynamics = 'bfgs'
/

ATOMIC_SPECIES 
C	12.0107	C.pbe-paw.UPF
H	1.00794	H.pbe-paw.UPF
O	15.9994	O.pbe-paw.UPF
Zr	91.224	Zr.pbe-paw.UPF

ATOMIC_POSITIONS {angstrom}
H	12.6728218768	12.8864373123	15.0376615761
H	8.64354016572	2.14498109759	20.7363534228
H	9.26982115985	5.28740208852	16.2924384596
H	2.14498110608	6.12729888686	0.15038365659
H	2.09801699588	12.8864372554	15.0376614477
H	10.5280005365	10.7416961747	18.0714766182
H	9.4834370999	5.50101795728	4.59429504754
H	4.02914246535	10.528000214	2.8152568388
H	5.28740185632	9.26982090192	4.59429523572
H	5.50101773318	5.28740215189	16.2924383602
H	10.1667361591	7.38541945282	12.4095152709
H	5.5010173876	9.48343647436	16.2924380526
H	7.38541939424	10.1667360028	8.47721802256
H	12.6728219746	1.88440177914	15.0376617371
H	2.14498110454	8.64354004393	0.150383693118
H	3.35627659518	11.6282581824	13.2586230344
H	3.14258035333	11.4145617994	7.62811032255
H	2.09801714457	1.88440162725	15.0376615603
H	5.2404383176	1.25812051248	10.5937468005
H	4.24283846279	4.0291426263	18.0714767156
H	11.989522369	7.79453242002e-09	1.96614865473
H	6.12729902153	2.14498109472	20.7363532645
H	5.28740163759	5.50101817631	4.59429527204
H	11.414562534	3.14258104584	13.2586233668
H	12.8864375131	2.09801731346	5.84907185853
H	13.5127182508	9.53040032975	10.2929863383
H	1.25812052414	5.24043842246	10.2929828074
H	7.68380010729e-08	11.9895221425	18.9205849066
H	1.88440114919	2.09801752467	5.84907181905
H	6.12729900235	12.6258580954	20.7363495099
H	9.53040019769	13.5127182526	10.5937504443
H	4.24283808115	10.7416958469	18.0714764815
H	12.6258580947	8.64354004863	0.150379958964
H	4.02914221039	4.24283898167	2.81525681234
H	11.4145623689	11.6282581666	13.2586231714
H	4.60410276288	7.38541942469	12.4095153734
H	3.35627670101	3.14258084178	13.2586232126
H	1.0754779758e-07	2.78131669151	18.9205848478
H	7.38541937597	4.60410263445	8.47721822276
H	3.14258025563	3.35627701749	7.62811027141
H	10.5280003124	4.02914249507	18.071476833
H	12.8864376351	12.6728213414	5.84907203589
H	12.6258581095	6.12729889382	0.150379926694
H	11.6282583442	11.4145617563	7.6281102718
H	11.6282582148	3.35627674938	7.62811020403
H	9.48343714075	9.26982087664	4.59429495146
H	13.5127182559	5.24043843284	10.2929826814
H	8.64354015926	12.6258581026	20.7363496702
H	10.7416967582	10.5280001496	2.81525670063
H	5.24043830234	13.5127182555	10.5937466334
H	2.78131687178	2.78747907148e-08	1.9661485125
H	1.88440128217	12.672821417	5.849071941
H	1.25812051385	9.53040031515	10.2929864616
H	10.7416967283	4.24283882284	2.81525669582
H	9.53040021963	1.25812051996	10.5937506155
H	9.26982132537	9.48343671683	16.2924382012
C	6.17245218503	0.694757498751	10.5950099699
C	0.694757513797	6.17245228752	10.2917212067
C	8.59838633519	14.0760812659	10.5950120544
C	5.20468344449	9.69881312608	13.6210312185
C	10.2319549069	10.0166411877	4.85510207372
C	10.0166416762	10.2319545544	16.0316311455
C	10.9267854714	4.05940109498	3.87267162946
C	4.75419736494	4.53888433526	16.0316312794
C	3.84405335364	4.05940126889	3.87267172725
C	10.926785523	10.711437785	3.87267164635
C	2.18073579737	2.31339364328	3.17766484045
C	3.84405358667	10.7114378311	3.87267176273
C	6.69066201897	13.5578719711	20.7350879806
C	12.5901032874	12.4574453119	3.17766494672
C	6.69066202897	1.21296723435	20.735090099
C	12.4574454254	12.5901029837	17.709068628
C	13.5578719515	8.08017703676	0.151643139515
C	2.31339357852	2.1807359044	17.7090685825
C	8.08017714682	13.5578719583	20.7350880698
C	4.49427887104	9.26971062924e-08	20.7932396075
C	1.21296723769	6.69066189586	0.151645248344
C	1.71585124218e-07	4.49427875843	0.0934935076925
C	2.84653497308	2.63122197575	15.2984686617
C	4.53888386619	4.75419781998	4.85510226344
C	10.2765603269	7.77857631132e-08	20.7932399307
C	2.63122146566	2.84653532699	5.58826480366
C	1.24931746766e-07	10.2765601824	0.0934936300523
C	12.1396173177	11.9243035834	5.58826489658
C	2.18073591551	12.4574453909	3.1776649074
C	11.9243040469	12.1396169506	15.2984686483
C	10.7114381794	10.9267850275	17.0140617525
C	2.3133934436	12.5901028568	17.7090685124
C	9.56615551572	9.69881315493	13.6210312814
C	4.05940083569	3.84405382949	17.0140618403
C	12.4574454039	2.18073585467	17.7090687107
C	5.20468347485	5.07202581778	13.6210314308
C	12.5901033283	2.31339360883	3.17766486532
C	5.07202562092	5.20468358013	7.2657021389
C	13.5578719757	6.69066191587	0.151643118872
C	9.69881309605	9.56615519281	7.26570192631
C	8.08017715727	1.21296722081	20.7350901876
C	10.2787384799	10.4799624024	14.6770311758
C	4.4921005451	4.29087653475	14.6770313128
C	4.2908760363	4.49210082345	6.20970229805
C	11.87969812	7.38541938087	10.349872957
C	10.4799626529	10.2787380607	6.20970214751
C	13.373421137	7.38541936866	10.3016652859
C	1.21296723072	8.08017702062	0.151645270429
C	7.38541925444	13.3734211229	10.5850677882
C	1.3974176456	7.38541937469	10.3016654586
C	7.38541928927	1.39741765294	10.5850680056
C	10.2787385081	4.29087660837	14.6770314114
C	7.38541932237	11.8796981262	10.5368601533
C	10.479962583	4.49210059962	6.2097021624
C	4.29087616081	10.2787380936	6.20970230137
C	2.63122161731	11.9243036486	5.58826489878
C	4.49210035619	10.4799623276	14.6770310631
C	2.89331846405	3.09454317164	4.23366476756
C	11.8775204355	11.6762958085	4.23366482405
C	11.6762962165	11.8775200837	16.6530686115
C	2.89114065581	7.38541935599	10.3498732156
C	3.09454278943	2.89331880691	16.6530686255
C	5.98800188101	1.22420495586e-07	20.7450320872
C	2.84653478925	12.1396168571	15.2984685056
C	1.53513696098e-07	5.98800173605	0.141701059299
C	8.78283729517	1.48836668766e-07	20.7450322933
C	1.65029107464e-07	8.78283715604	0.141701136915
C	2.89331865529	11.6762958732	4.23366485069
C	7.38541931373	2.89114064911	10.5368605149
C	3.0945425622	11.8775199035	16.653068468
C	11.6762961597	2.89331881927	16.6530687792
C	11.9243040923	2.63122208167	15.2984688149
C	11.8775203818	3.0945430264	4.23366472712
C	11.2294735342	11.4448204658	14.3160380384
C	3.54136550094	3.32601848931	14.3160380946
C	3.32601797598	3.54136588214	6.57069535243
C	9.56615556906	5.07202588735	13.6210314776
C	11.4448206962	11.229472973	6.57069532925
C	14.0760812784	6.17245230579	10.2917211222
C	12.1396172191	2.84653511807	5.5882647872
C	6.172452177	14.0760812741	10.5950098903
C	0.694757500418	8.59838644765	10.2917232815
C	8.5983863521	0.694757494019	10.5950121352
C	10.0166415726	4.53888431946	16.0316313886
C	9.69881302188	5.20468342363	7.265702008
C	10.2319548529	4.75419760336	4.85510210014
C	4.53888406196	10.0166412256	4.85510225418
C	4.05940053108	10.9267847745	17.0140616162
C	4.75419706861	10.2319543578	16.0316310252
C	11.4448206041	3.54136563247	6.57069527029
C	3.32601809772	11.2294730313	6.57069539701
C	3.54136533288	11.4448204259	14.3160379078
C	5.07202565289	9.56615512703	7.26570208078
C	11.2294736293	3.32601861487	14.3160382398
C	14.0760812677	8.59838647611	10.2917231978
C	10.7114380356	3.84405378673	17.014061959
Zr	9.15292041488	9.15292039777	10.4433666311
Zr	7.38541948125	7.38541946515	12.9431629662
Zr	7.38541939391	7.38541931682	7.9435704871
Zr	5.6179184086	5.61791838969	10.4433668161
Zr	9.1529204161	5.61791835679	10.4433667594
Zr	5.61791840792	9.15292034947	10.4433666888
Zr	1.5364472855e-07	3.62002013658e-09	2.49979627328
Zr	8.78835763634e-08	-3.34347354343e-08	18.3869371782
Zr	1.76750113742	1.76750096956	20.886733359
Zr	13.0033379986	13.0033379262	7.69902904878e-08
Zr	1.76750114542	13.0033379053	20.8867333766
Zr	13.0033380556	1.76750100753	6.03605305766e-08
O	5.39419138156	7.38541941244	11.8511342335
O	9.37664752358	7.38541942202	11.8511341284
O	7.38541940844	9.37664741059	9.03559918856
O	7.38541940754	5.39419124505	9.03559935702
O	12.7796109744	-1.83259379482e-09	1.40776752302
O	1.991228262	2.06902986005e-10	1.4077674014
O	1.20606933418e-07	1.99122804448	19.4789659593
O	1.01125461004e-07	12.779610797	19.4789660241
O	8.72866770914	8.81759809781	14.0104362447
O	6.04217127779	5.95324089448	14.0104363955
O	5.95324074623	6.04217116126	6.87629723439
O	8.81759803111	8.72866756017	6.8762970242
O	11.2956012797	8.52008102548	10.380708822
O	8.52008097389	11.2956012694	10.5060246769
O	3.47523752277	6.25075771426	10.3807088085
O	6.25075768907	3.47523752799	10.5060246711
O	9.86328342884	4.81874571883	12.4056459393
O	9.95209314812	4.90755539275	8.4810876248
O	4.81874542886	9.86328298487	8.4810877253
O	4.90755570365	9.95209330607	12.4056456553
O	8.81759798847	6.04217109064	6.87629714376
O	5.95324073302	8.72866755519	6.87629714177
O	6.04217124315	8.81759811165	14.0104362309
O	8.72866774791	5.95324093645	14.0104363836
O	11.2956012701	6.25075772125	10.3807085117
O	8.52008098334	3.47523750251	10.5060250909
O	3.4752374908	8.52008101636	10.380709094
O	6.25075767056	11.2956012531	10.5060242836
O	9.95209322314	9.86328311646	8.48108756694
O	9.86328329302	9.95209327758	12.4056457252
O	4.90755566237	4.8187456631	12.4056458936
O	4.81874549588	4.90755559945	8.48108775359
O	1.34324822779	1.43217847924	3.56706967441
O	13.4275908904	13.3386604018	3.56706982732
O	13.3386605135	13.4275907732	17.3196637218
O	1.43217849117	1.34324811615	17.3196636662
O	3.91018200405	1.13466171868	20.824075479
O	1.13466179369	3.91018187531	0.0626580109393
O	10.8606571528	13.6361773145	20.8240754259
O	13.6361773762	10.8606570456	0.0626578033389
O	2.47786397416	12.2041652094	1.96227930311
O	2.56667371963	12.292974997	18.924454036
O	12.2041651755	2.47786361819	18.9244542832
O	12.2929754934	2.56667391671	1.96227923364
O	1.4321784097	13.4275907267	17.3196636708
O	13.3386604946	1.34324813007	17.3196637424
O	13.4275908823	1.43217849912	3.5670697577
O	1.34324827371	13.338660453	3.56706971593
O	3.91018200934	13.6361773265	20.8240750631
O	1.13466180485	10.8606570628	0.0626581713638
O	10.8606571854	1.13466174632	20.8240758192
O	13.6361774	3.91018192077	0.0626576742089
O	2.56667380762	2.47786371029	18.9244541275
O	2.47786379775	2.5666738243	1.96227924867
O	12.2929753757	12.204165098	1.9622793122
O	12.2041652129	12.2929751635	18.9244541715
O	5.9190733285	7.38541934268	9.40620340353
O	8.85176550585	7.38541933652	9.40620333871
O	7.38541945935	5.91907332282	11.4805301598
O	7.38541944792	8.85176548004	11.48053001
O	13.3044929432	-2.35570837234e-08	19.8495701065
O	1.4663462319	-4.07624981634e-08	19.849569995
O	1.40552786023e-07	13.3044927992	1.0371634115
O	1.5109792094e-07	1.46634607935	1.03716336635

K_POINTS automatic
   1 1 1   1 1 1

CELL_PARAMETERS {angstrom}
14.7708388941	1.32813200959e-08	-2.72314615791e-08
-2.41821525275e-08	14.7708389002	3.08589147479e-08
2.87594192321e-08	-2.90293868274e-08	20.8867333907

