&CONTROL
   prefix        = 'UiO66'
   calculation   = 'scf'
   tstress       = .TRUE.
   tprnfor       = .TRUE.
   pseudo_dir    = '/scratch/gent/vo/000/gvo00003/vsc41949/QE_scratch/pp'
   outdir        = './'
   disk_io       = 'low'
   
   lelfield = .TRUE.
   nberrycyc = 1
/

&SYSTEM
   ibrav         = 0
   nat           = 114
   ntyp          = 4
   ecutwfc       = 44
   nosym         = .TRUE.
   vdw_corr      = 'dft-d3'
   dftd3_version = 4
/

&ELECTRONS
   electron_maxstep = 200
   conv_thr = 1.000000D-9
   efield_cart(1) = 0.001000
   efield_cart(2) = 0.000000
   efield_cart(3) = 0.000000
/

&IONS
   ion_dynamics = 'bfgs'
/

ATOMIC_SPECIES 
C	12.0107	C.pbe-paw.UPF
H	1.00794	H.pbe-paw.UPF
O	15.9994	O.pbe-paw.UPF
Zr	91.224	Zr.pbe-paw.UPF

ATOMIC_POSITIONS {angstrom}
O	9.86244172333	12.9105754658	3.22831681368
O	9.95069030875	9.75717371706	0.890451238893
O	19.5867198828	4.09190773001	8.9023431593
O	7.38435186699	10.4914387614	0.812692981756
O	19.6749718077	7.34720933084	11.0961130967
O	13.4253049297	2.08584235353	3.22831531889
O	16.1121068324	3.73896163812	0.89044197422
O	16.2003557025	14.9166556014	8.9023410244
O	13.337054045	13.3654240387	11.0961053952
O	28.0702031768	16.2063416707	11.4596187999
O	22.1530585235	12.7900744885	1.79696402681
O	16.2359180205	16.2063399174	11.4596163487
O	22.1530592523	5.9575487937	11.4596147682
O	9.86244288717	7.34721007863	11.0961031678
O	9.95069170544	4.09191511567	8.90233680092
O	12.778027742	1.14931682671	0.812691603714
O	7.38435278454	4.26335912246	9.6205282145
O	19.5867188022	9.75717522771	0.89044496193
O	1.99067697364	1.14931721712	0.812690140874
O	19.6749702497	12.9105820727	3.22831543688
O	16.1121073665	2.08583626793	3.22831594195
O	13.4253046393	3.7389635216	0.890449094697
O	13.337054475	14.9166464497	8.90234403931
O	16.2003558569	13.3654232282	11.0961148935
O	18.2433210157	12.0840094943	0.89044456961
O	8.51904741268	6.57159535842	8.90233740772
O	11.2940910315	4.86752110359	11.0961034904
O	11.2940891559	12.0840125306	0.890443605555
O	8.51904623518	10.5837348753	3.22831579408
O	18.2433228356	4.86751799213	11.0961034703
O	21.0183782795	6.5715934442	8.90234081816
O	21.0183768786	10.5837346025	3.22831529218
C	12.1382432574	6.20581094545	0.90242103928
C	25.0459631308	9.50657682552	11.9763791169
C	17.8630157273	15.266939056	7.25228819324
C	26.4431030953	11.9264997698	11.9763794998
C	18.3095334323	13.608432426	5.5500838487
C	19.2601575919	14.4602979109	4.97076424948
C	25.045962567	14.4602932852	4.97076539503
C	19.2601598506	9.5065784643	11.9763812498
C	26.4431022759	15.2669346094	7.25229130628
C	17.8630181918	11.9265008585	11.9763829648
C	20.7559175149	16.9371522348	11.9763797381
C	22.1530641197	9.44963985453	4.97076488364
C	23.5502025259	16.9371510041	11.9763783236
C	22.1530631409	7.83635891096	7.25228913985
C	17.3991787391	6.20580334351	0.902424413455
C	17.6148033052	14.0095367374	6.68457496524
C	11.922598769	10.9721267443	10.9801153076
C	11.4435154191	3.32051432966	6.68458323035
C	12.1382457152	2.91940984856	5.55009224625
C	11.2278720669	13.6084241305	5.55008864575
C	18.3095410112	9.76881386539	10.9801259123
C	18.0939055674	3.32051348446	6.68457898439
C	14.0739756602	4.83921256854	10.9801126559
C	20.9400130695	9.05230854352	5.55008436745
C	15.4634353306	11.9652259707	0.902425672276
C	8.59740578461	9.05232665418	5.55009459849
C	15.4634378428	4.8392100719	10.980114223
C	20.9400153839	8.25010239929	6.68457565865
C	11.9226026204	14.009526079	6.68458082924
C	11.2278696447	9.76881609358	10.9801143804
C	18.0939081075	7.40911369416	0.902425407119
C	24.3337095148	8.19316955482	12.0045732379
C	17.0816984536	15.7180340874	8.44358746966
C	27.2244189614	13.2000330355	12.0045745062
C	17.0816986642	13.2000324635	12.004578525
C	19.2623463683	16.9770276506	12.0045729406
C	19.9724102785	14.0490790058	3.72307340084
C	22.1530624414	10.2720769819	3.72307375534
C	25.0437717585	16.9770233144	12.0045752793
C	22.1530660225	6.93416988528	8.44358760364
C	24.33370758	14.0490748426	3.72307443653
C	11.4435115444	7.40912037147	0.902420396895
C	19.9724127511	8.19317115821	12.0045797621
C	27.2244191995	15.7180260531	8.44359165382
C	8.59740817087	8.25012039565	6.68458565673
C	14.0739730248	11.965228171	0.902424163219
C	17.3991749268	2.91941166328	5.55008678238
C	17.6148093236	10.9721233707	10.9801252191
Zr	20.3857332387	5.283725614	10.6155858111
Zr	9.15168076258	5.28372608265	10.61558312
Zr	14.7687067386	15.0127022884	10.6155866743
Zr	20.3857316127	11.7697084072	1.44302068779
Zr	14.7687054232	2.04073230509	1.44301764904
Zr	9.15167880767	11.769708378	1.4430186944
H	12.8850265119	3.56435633181	5.08925288528
H	11.4130290045	12.6392230271	5.08924510347
H	18.1243823202	9.0112581163	10.2199702995
H	17.9106132052	4.29079143081	7.14390027412
H	11.6268059931	8.16559978138	1.66409815539
H	13.5104925224	5.37833566625	10.2199540643
H	20.0080832925	9.37655276603	5.0892360688
H	16.0269187129	11.4282558563	1.66410701569
H	9.52933792103	7.92372342914	7.14391167892
H	9.52933713543	9.37658451697	5.08925530325
H	16.0269221706	5.37833341101	10.2199537513
H	20.0080841535	7.92369178963	7.14389256698
H	13.5104891251	11.4282583442	1.66410679731
H	16.6524009995	3.56436125668	5.08924257951
H	16.866167782	11.1905502469	10.2199708591
H	12.6712414199	13.3656528134	7.14390282633
H	12.8850205966	5.98630778335	1.66409748506
H	18.1243717145	12.6392351502	5.08923598077
H	11.4130230399	9.01126425349	10.2199552421
H	11.6268126886	4.29078792111	7.14390875033
H	17.9106193297	8.16558920745	1.66410727858
H	7.38435234892	4.26335865909	8.65303162329
H	7.38435154523	9.57927402299	1.13519154629
H	11.9880699384	1.6053990582	1.13519041054
H	2.78063452124	1.60539956539	1.13518915701
H	16.6524074883	5.98629613656	1.66410642895
H	16.8661580598	13.365666655	7.14389203308
H	12.6712348589	11.1905573747	10.2199556981

K_POINTS automatic
   1 1 1   1 1 1

CELL_PARAMETERS {angstrom}
14.7687057528	4.05087739282e-07	2.324725444e-06
7.38435320829	12.7900751263	3.12116813321e-06
7.38435486943	4.26336034092	12.058599547

