General:
    SYSTEM = CsPbBr3
    ISTART = 0
    ISMEAR = 0   
    SIGMA = 0.05
    EDIFF = 1.0E-8
    ENCUT = 600  
    ISYM = 0
    NELM = 200
    PREC = Accurate
    LWAVE = .FALSE.
    LCHARG = .FALSE.
    LASPH = .TRUE.  

Van der Waals Interaction (vasp 5.3.5 patched verion):  
    IVDW = 12

dynamic:
    IBRION = 2  ! -1: Fix atoms; 0: MD; 2: ConjGrad relax
    NSW    = 400      ! Number electronic steps
    ISIF   = 4

parallel:
    NCORE = 8
