K-Points
 0
Monkhorst Pack
 4  4  6
 0  0  0
