Created_with_HORTON                     
    1.006897566337952     
    20.7465008205652239    0.0000000044677421    0.0000000431170795
    -0.0000000320973492   20.7465008506363269   -0.0000000034777262
    -0.0000000907490818   -0.0000000518864142   20.7464983746984437
   Zr   O    C    H 
    24   128   192   112
Direct
  0.9999999950479559  0.9999999984661084  0.1196694022928711
  0.0000000032145184  0.0000000006291582  0.8803306040953565
  0.1196693851519657  0.9999999964784368  0.0000000043221053
  0.8803306168094225  0.0000000012292950  0.9999999986560172
  0.0000000000948063  0.1196693848559699  0.0000000013059818
  0.9999999986858488  0.8803306163515623  0.0000000005110767
  0.0000000019396246  0.5000000004904464  0.6196693977748154
  0.9999999960256213  0.4999999979713859  0.3803305987252705
  0.1196693847070306  0.4999999998565715  0.4999999978087389
  0.8803306176158334  0.4999999991697927  0.5000000016313789
  0.0000000008265209  0.6196693821067276  0.4999999973039442
  0.9999999996933304  0.3803306144244245  0.5000000021655215
  0.5000000023670863  0.0000000009104658  0.6196693976527361
  0.4999999960800994  0.9999999962731362  0.3803305988319723
  0.6196693818482319  0.0000000005012253  0.4999999954515261
  0.3803306139181742  0.0000000000677007  0.5000000040474547
  0.5000000000519418  0.1196693844965254  0.4999999978915013
  0.4999999986274515  0.8803306173126286  0.5000000005916494
  0.4999999993204727  0.4999999993281787  0.1196694007866904
  0.4999999994494224  0.4999999998197660  0.8803306036271450
  0.6196693815196429  0.5000000007794211  0.0000000012936163
  0.3803306137768707  0.4999999982349179  0.9999999997223480
  0.4999999959881228  0.6196693816071859  0.0000000022542984
  0.5000000016808688  0.3803306142245478  0.9999999997498151
  0.9325984467428399  0.9325984486259685  0.0674015770374951
  0.0674015542165286  0.0674015535673224  0.0674015809367943
  0.0674015519781744  0.9325984472883271  0.9325984245092688
  0.9325984490462678  0.0674015523658777  0.9325984231085215
  0.9325984489851474  0.4325984505834218  0.5674015816126945
  0.0674015530541196  0.5674015539186817  0.5674015764238041
  0.0674015535080714  0.4325984475260332  0.4325984226473317
  0.9325984478057265  0.5674015524650455  0.4325984263067465
  0.4325984509302465  0.9325984490263801  0.5674015821922967
  0.5674015548707632  0.0674015527324495  0.5674015758123047
  0.5674015516817832  0.9325984477181074  0.4325984258289834
  0.4325984459548287  0.0674015532590405  0.4325984231187458
  0.4325984473613896  0.4325984469264119  0.0674015820362504
  0.5674015522591096  0.5674015536245434  0.0674015758481767
  0.5674015547728721  0.4325984502099073  0.9325984229408316
  0.4325984484570047  0.5674015532780432  0.9325984227875515
  0.0939497564882501  0.9969991192375562  0.1707648280443574
  0.9060502154026598  0.0030008781026129  0.1707648180612582
  0.9060502413679581  0.9969991246258622  0.8292351753878231
  0.0939497602511694  0.0030008766361688  0.8292351723272519
  0.1707647945962770  0.0939497936734442  0.9969991252274653
  0.1707647874920694  0.9060501890382170  0.0030008811258415
  0.8292352051428866  0.9060502036187981  0.9969991294765266
  0.8292352032211788  0.0939497906611196  0.0030008699852092
  0.9969991155205998  0.1707647894464712  0.0939498221808256
  0.0030008864222651  0.1707647827260961  0.9060501661178108
  0.9969991143110907  0.8292352119116970  0.9060501758129652
  0.0030008849645575  0.8292352041293696  0.0939498099623347
  0.0030008795550664  0.0939497535500716  0.8292351699059268
  0.9969991247070717  0.9060502358581429  0.8292351783727918
  0.0030008780029852  0.9060502225606971  0.1707648194014044
  0.9969991174936584  0.0939497652225084  0.1707648238921173
  0.0939498011269114  0.1707647911324321  0.9969991246790102
  0.9060501936337982  0.1707647906088249  0.0030008790189218
  0.9060501979896283  0.8292352082816140  0.9969991306529304
  0.0939497879333870  0.8292352008770120  0.0030008696259809
  0.1707647855228351  0.0030008829775383  0.9060501735742752
  0.1707647869036737  0.9969991132814208  0.0939498294844276
  0.8292352025784429  0.0030008872118009  0.0939498045130063
  0.8292352134510509  0.9969991166334737  0.9060501713699554
  0.0939497583597285  0.4969991284910414  0.6707648279294675
  0.9060502398621854  0.5030008796306272  0.6707648287134998
  0.9060502146758087  0.4969991248633339  0.3292351853343719
  0.0939497603566480  0.5030008828374626  0.3292351736331626
  0.1707647873638939  0.5939498069348267  0.4969991256088050
  0.1707647944780123  0.4060502051817891  0.5030008818827538
  0.8292352009795364  0.4060502136153293  0.4969991327919447
  0.8292352089636894  0.5939497991326036  0.5030008711793227
  0.9969991202016114  0.6707647910940309  0.5939498184925467
  0.0030008838896390  0.6707647930782604  0.4060501847648994
  0.9969991098115965  0.3292352090349346  0.4060501846236129
  0.0030008891020527  0.3292352203040421  0.5939498392569630
  0.0030008781575705  0.5939497724979733  0.3292351812214069
  0.9969991162172350  0.4060502291881785  0.3292351803524311
  0.0030008815666210  0.4060502512647009  0.6707648339851860
  0.9969991260894683  0.5939497690978748  0.6707648201329273
  0.0939497895475846  0.6707647974127038  0.4969991274240123
  0.9060502032099470  0.6707647934304733  0.5030008770155205
  0.9060501904801420  0.3292352118528474  0.4969991337636278
  0.0939497986386369  0.3292352081219134  0.5030008737621975
  0.1707647858160210  0.5030008891525112  0.4060501723227775
  0.1707647852748168  0.4969991199025486  0.5939498294962298
  0.8292352151144227  0.5030008876182404  0.5939498289360848
  0.8292352006925995  0.4969991166627031  0.4060501967471096
  0.5939497722161670  0.9969991269051106  0.6707648192527952
  0.4060502545900890  0.0030008812015208  0.6707648361805985
  0.4060502264251135  0.9969991157453025  0.3292351812876108
  0.5939497687961850  0.0030008756586099  0.3292351776243950
  0.6707647978484543  0.0939497867542376  0.4969991251427065
  0.6707647931519043  0.9060502026817830  0.5030008756889101
  0.3292352113434602  0.9060501930145779  0.4969991345064984
  0.3292352084781958  0.0939497992653259  0.5030008765121835
  0.4969991194681712  0.1707647844753703  0.5939498309229723
  0.5030008891868709  0.1707647862460376  0.4060501742771774
  0.4969991171690106  0.8292352008570916  0.4060501939585341
  0.5030008875508459  0.8292352146496915  0.5939498260964421
  0.5030008822202524  0.0939497611566457  0.3292351740100548
  0.4969991226077352  0.9060502165239479  0.3292351864358268
  0.5030008813759057  0.9060502368287415  0.6707648267421242
  0.4969991287599221  0.0939497562490763  0.6707648276294910
  0.5939498088920296  0.1707647872374635  0.4969991263420976
  0.4060502044386720  0.1707647939021985  0.5030008819735888
  0.4060502108165717  0.8292352014264195  0.4969991333619778
  0.5939497993920906  0.8292352092332194  0.5030008704306654
  0.6707647909528758  0.0030008837047208  0.4060501823024621
  0.6707647926723713  0.9969991209968136  0.5939498161784783
  0.3292352225046027  0.0030008895381859  0.5939498430882559
  0.3292352064876803  0.9969991097652814  0.4060501888139611
  0.5939497774720792  0.4969991266180680  0.1707648170871761
  0.4060502358967090  0.5030008857718316  0.1707648260607101
  0.4060502473813816  0.4969991245874854  0.8292351693746000
  0.5939497642673182  0.5030008781658201  0.8292351756168846
  0.6707647899733112  0.5939498024072053  0.9969991278444498
  0.6707648005323346  0.4060502191190158  0.0030008801388041
  0.3292352082578498  0.4060501998445078  0.9969991259326781
  0.3292352110945639  0.5939498041772291  0.0030008703315452
  0.4969991204449855  0.6707647958591115  0.0939498129509041
  0.5030008832668939  0.6707647889066166  0.9060501804809364
  0.4969991165648172  0.3292352170944642  0.9060501649971759
  0.5030008943017580  0.3292352118646539  0.0939498207683429
  0.5030008789586269  0.5939497662783833  0.8292351771008123
  0.4969991259509340  0.4060502494874626  0.8292351694126155
  0.5030008859330815  0.4060502346744054  0.1707648253405857
  0.4969991241146334  0.5939497746348568  0.1707648165777009
  0.5939497929190061  0.6707647939149814  0.9969991281536955
  0.4060502083815793  0.6707647967447239  0.0030008796053125
  0.4060502064270293  0.3292352051053679  0.9969991269063887
  0.5939498142508700  0.3292352152057816  0.0030008694754527
  0.6707647886457683  0.5030008845571962  0.9060501776608214
  0.6707647949527651  0.4969991224677929  0.0939498115737278
  0.3292352120966243  0.5030008921514091  0.0939498224147036
  0.3292352167086149  0.4969991138999272  0.9060501659070180
  0.9503693230096310  0.9503693237650878  0.9503693071756666
  0.0496306743866554  0.0496306720009980  0.9503693106489192
  0.9503693250348726  0.0496306730681607  0.0496306897571734
  0.0496306721045688  0.9503693248394433  0.0496306910352843
  0.9503693241917309  0.4503693266554772  0.4503693131226206
  0.0496306731251454  0.5496306741353908  0.4503693097996374
  0.9503693238509261  0.5496306773627304  0.5496306951849597
  0.0496306743585892  0.4503693282655810  0.5496306925111851
  0.4503693254784126  0.9503693245311881  0.4503693136174259
  0.5496306741184156  0.0496306725298945  0.4503693090425994
  0.4503693288879554  0.0496306731423981  0.5496306925936254
  0.5496306789225687  0.9503693238441918  0.5496306947059256
  0.4503693275354997  0.4503693271724960  0.9503693097160834
  0.5496306770230681  0.5496306778569267  0.9503693066578600
  0.4503693265819922  0.5496306740988396  0.0496306899415093
  0.5496306755967197  0.4503693283375310  0.0496306903039641
  0.2026936646327282  0.9932950843781135  0.2026936638972660
  0.7973063158202116  0.0067049147111796  0.2026936411402112
  0.7973063381068889  0.9932950933209883  0.7973063421274192
  0.2026936636987225  0.0067049100746750  0.7973063403419405
  0.2026936665610652  0.2026936605603063  0.9932950821476996
  0.2026936515729900  0.7973063261533636  0.0067049170334518
  0.7973063354467111  0.7973063423774265  0.9932950915393002
  0.7973063331500632  0.2026936586385955  0.0067049131175371
  0.9932950861713699  0.2026936677975024  0.2026936606851620
  0.0067049096700575  0.2026936609449196  0.7973063369906900
  0.9932950947382071  0.7973063356563640  0.7973063449353498
  0.0067049147346379  0.7973063171132065  0.2026936423828093
  0.2026936616855247  0.4932950925988516  0.7026936648797182
  0.7973063334256195  0.5067049111216057  0.7026936568390341
  0.7973063224885771  0.4932950867144967  0.2973063566372739
  0.2026936656960528  0.5067049196123280  0.2973063428470828
  0.2026936544982595  0.7026936718477457  0.4932950798116661
  0.2026936624549571  0.2973063376783148  0.5067049135037422
  0.7973063310767440  0.2973063451663370  0.4932950872334380
  0.7973063383092452  0.7026936611970558  0.5067049100311571
  0.9932950951434032  0.7026936704258665  0.7026936547205027
  0.0067049145649724  0.7026936751211834  0.2973063533317998
  0.9932950830581814  0.2973063320628758  0.2973063490898671
  0.0067049108934324  0.2973063405820603  0.7026936651779722
  0.7026936742426605  0.9932950938804392  0.7026936515783566
  0.2973063465001348  0.0067049132990303  0.7026936700208219
  0.2973063272277359  0.9932950805739529  0.2973063549922279
  0.7026936700678630  0.0067049136800588  0.2973063480035028
  0.7026936708579863  0.2026936553872966  0.4932950822554664
  0.7026936622534248  0.7973063390312132  0.5067049094212046
  0.2973063472230660  0.7973063301508345  0.4932950841928367
  0.2973063370398721  0.2026936609074361  0.5067049146908512
  0.4932950946813037  0.2026936620678725  0.7026936641641441
  0.5067049172442577  0.2026936649983105  0.2973063421666424
  0.4932950864654526  0.7973063199531458  0.2973063590175442
  0.5067049082243200  0.7973063338251507  0.7026936568157354
  0.7026936740875519  0.4932950892446016  0.2026936521840717
  0.2973063270529074  0.5067049203161598  0.2026936507828236
  0.2973063443363285  0.4932950897773918  0.7973063348426779
  0.7026936693940055  0.5067049089330841  0.7973063461393434
  0.7026936608239874  0.7026936644841704  0.9932950876386021
  0.7026936713725989  0.2973063472594311  0.0067049125358748
  0.2973063415229380  0.2973063357661991  0.9932950849364580
  0.2973063428183656  0.7026936670067258  0.0067049172683016
  0.4932950885916825  0.7026936767920094  0.2026936500506310
  0.5067049069907504  0.7026936668275793  0.7973063450294856
  0.4932950942486825  0.2973063430176950  0.7973063349649707
  0.5067049182392436  0.2973063266811719  0.2026936511206902
  0.2675406880554936  0.9928365727073034  0.1854245190607306
  0.7324593135671350  0.0071634264944380  0.1854245590679150
  0.7324593070534716  0.9928365804850133  0.8145754801270754
  0.2675407002808746  0.0071634241532229  0.8145754917484080
  0.1854245489704136  0.2675406954871901  0.9928365638557720
  0.1854245813091452  0.7324593083790227  0.0071634033930662
  0.8145754489577793  0.7324593019465295  0.9928365731607638
  0.8145754680090871  0.2675407057813325  0.0071634641419591
  0.9928365738371789  0.1854245735305740  0.2675407121896053
  0.0071634210145161  0.1854245943747093  0.7324592945469097
  0.9928365861362489  0.8145754216888451  0.7324592891490038
  0.0071634262407524  0.8145754582912029  0.2675407195926992
  0.0071634234511532  0.2675406986588997  0.8145754962776537
  0.9928365820946259  0.7324593044989353  0.8145754793852404
  0.0071634269429660  0.7324593144005129  0.1854245556188182
  0.9928365749851602  0.2675406915883627  0.1854245236293467
  0.2675406965782381  0.1854245570330701  0.9928365640485906
  0.7324593103615729  0.1854245761662982  0.0071633987387938
  0.7324593005046752  0.8145754404619636  0.9928365726622256
  0.2675407029275572  0.8145754746340088  0.0071634688458563
  0.1854245885101522  0.0071634223216047  0.7324592959886591
  0.1854245767899053  0.9928365725444821  0.2675407153853484
  0.8145754612135330  0.0071634256086020  0.2675407187639219
  0.8145754194872407  0.9928365848508105  0.7324592872609407
  0.2675406994842122  0.4928365786070340  0.6854245017008644
  0.7324593084715155  0.5071634213993694  0.6854245254318315
  0.7324593108794903  0.4928365715416063  0.3145754432042501
  0.2675406870719015  0.5071634312081279  0.3145754720426305
  0.1854245752827061  0.7675406885552972  0.4928365609227074
  0.1854245500668203  0.2324593022269540  0.5071633974732280
  0.8145754703642161  0.2324592950062241  0.4928365663518678
  0.8145754470309559  0.7675406976644900  0.5071634584335691
  0.9928365834353505  0.6854245690135198  0.7675407094266161
  0.0071634258649117  0.6854245455012508  0.2324592794106295
  0.9928365743480494  0.3145754296801825  0.2324592896833744
  0.0071634227483322  0.3145753987941551  0.7675407055023824
  0.0071634273868455  0.7675406827481127  0.3145754496168076
  0.9928365706977121  0.2324593062259610  0.3145754709182052
  0.0071634229114397  0.2324593011400541  0.6854244971709776
  0.9928365850128739  0.7675406944160984  0.6854245264178478
  0.2675407019723376  0.6854245259593488  0.4928365588976390
  0.7324593038431120  0.6854245524171707  0.5071633937611798
  0.7324593097268448  0.3145754207744030  0.4928365645052435
  0.2675406948346851  0.3145754451456181  0.5071634632642452
  0.1854245691820119  0.5071634294609469  0.2324592831359912
  0.1854245947504432  0.4928365779849548  0.7675407039456802
  0.8145754260182232  0.5071634201751403  0.7675407142952927
  0.8145754555364746  0.4928365770584132  0.2324592826445911
  0.7675406945094125  0.9928365838137271  0.6854245311726422
  0.2324593022885336  0.0071634252666597  0.6854244913156057
  0.2324593057914350  0.9928365689389057  0.3145754636467960
  0.7675406806386755  0.0071634265910373  0.3145754530372090
  0.6854245256407225  0.2675407026645664  0.4928365621840582
  0.6854245514891762  0.7324593027664310  0.5071633933539984
  0.3145754224699705  0.7324593096017781  0.4928365611211829
  0.3145754461458505  0.2675406958471552  0.5071634639208145
  0.4928365810604460  0.1854245944613802  0.7675407035714932
  0.5071634264838573  0.1854245726071123  0.2324592841491185
  0.4928365760882515  0.8145754570193525  0.2324592827201439
  0.5071634170591842  0.8145754255343727  0.7675407127399012
  0.5071634288721545  0.2675406885266287  0.3145754741084251
  0.4928365716372786  0.7324593112414637  0.3145754420081575
  0.5071634182377114  0.7324593065791966  0.6854245228404175
  0.4928365809883322  0.2675406995383551  0.6854245031860252
  0.7675406883094246  0.1854245779642497  0.4928365638657373
  0.2324593031836213  0.1854245509352867  0.5071633981369552
  0.2324592947438036  0.8145754699581420  0.4928365628077111
  0.7675406970254889  0.8145754457136030  0.5071634582376954
  0.6854245499666579  0.0071634246671973  0.2324592771706405
  0.6854245660056272  0.9928365819326640  0.7675407089576812
  0.3145753943652870  0.0071634245655131  0.7675407068774105
  0.3145754375399202  0.9928365717093953  0.2324592898046761
  0.7675406838955148  0.4928365772943683  0.1854245486004588
  0.2324593088040615  0.5071634308866940  0.1854245289751877
  0.2324592993948157  0.4928365750979933  0.8145755031357731
  0.7675406918279081  0.5071634202363838  0.8145754718961337
  0.6854245525154876  0.7675406978930842  0.9928365707889714
  0.6854245215893257  0.2324592972113421  0.0071633982721085
  0.3145754446033875  0.2324593022209731  0.9928365654041285
  0.3145754238263861  0.7675406863852883  0.0071634688876583
  0.4928365741383462  0.6854245445211029  0.2675407177579518
  0.5071634164739987  0.6854245712556704  0.7324592894318381
  0.4928365822751515  0.3145753966798361  0.7324592953565642
  0.5071634278921155  0.3145754314124844  0.2675407117644245
  0.5071634175489504  0.7675406939585929  0.8145754756849705
  0.4928365795093771  0.2324592996236990  0.8145755026328526
  0.5071634281155161  0.2324593082531602  0.1854245280647862
  0.4928365763807027  0.7675406841542914  0.1854245501693953
  0.7675406933763840  0.6854245504176021  0.9928365711225395
  0.2324592945468806  0.6854245271196988  0.0071634036378402
  0.2324593050204657  0.3145754486759436  0.9928365652011143
  0.7675406888391598  0.3145754178350335  0.0071634638728870
  0.6854245694595553  0.5071634188211316  0.7324592876503599
  0.6854245463033031  0.4928365744426438  0.2675407184752371
  0.3145754325037801  0.5071634301565171  0.2675407126557164
  0.3145753971164096  0.4928365784985893  0.7324592951199759
  0.1521326478517228  0.9955486180669476  0.1521325872205913
  0.8478673817220154  0.0044513809964854  0.1521326131108992
  0.8478673556477987  0.9955486241721283  0.8478674197469691
  0.1521326371241618  0.0044513773577904  0.8478674072308290
  0.1521325979554191  0.1521326045678220  0.9955486252650961
  0.1521326089887795  0.8478674102486274  0.0044513743918087
  0.8478674041907424  0.8478674014990277  0.9955486326879825
  0.8478674080203943  0.1521326078805908  0.0044513725806995
  0.9955486188238297  0.1521326378343123  0.1521325968927446
  0.0044513795077341  0.1521326463541925  0.8478674161745929
  0.9955486239684606  0.8478673618433038  0.8478674148336989
  0.0044513801895568  0.8478673722697821  0.1521326028711528
  0.1521326418204300  0.4955486261501360  0.6521325926269793
  0.8478673586781191  0.5044513806270715  0.6521325889110635
  0.8478673816543063  0.4955486220122327  0.3478673904431808
  0.1521326397513992  0.5044513846908376  0.3478674103296416
  0.1521326067540852  0.6521325942721867  0.4955486255689647
  0.1521325968138207  0.3478673996670483  0.5044513748184796
  0.8478674125405131  0.3478673911725493  0.4955486335384031
  0.8478674023530812  0.6521325978400773  0.5044513713520919
  0.9955486260536365  0.6521326344586612  0.6521325978845430
  0.0044513796767878  0.6521326339798459  0.3478674049402815
  0.9955486155851232  0.3478673733335083  0.3478674022458345
  0.0044513815162031  0.3478673479467005  0.6521325786093988
  0.6521326324101124  0.9955486261848110  0.6521326009897671
  0.3478673455458465  0.0044513824876520  0.6521325755539540
  0.3478673763742238  0.9955486144435716  0.3478673983584404
  0.6521326342784172  0.0044513785046385  0.3478674038004974
  0.6521325908147760  0.1521326111359796  0.4955486257442702
  0.6521325987345933  0.8478674032352297  0.5044513703538115
  0.3478673954652135  0.8478674089159126  0.4955486329207266
  0.3478673991243280  0.1521325963277116  0.5044513763543054
  0.4955486266469337  0.1521326441321081  0.6521325899892922
  0.5044513837514466  0.1521326379825408  0.3478674081279787
  0.4955486213493939  0.8478673756282749  0.3478673971979858
  0.5044513801668240  0.8478673630730733  0.6521325917056827
  0.6521326292344111  0.4955486252503946  0.1521326048919689
  0.3478673630828221  0.5044513869793503  0.1521325924932737
  0.3478673546140425  0.4955486219150477  0.8478674189987837
  0.6521326381918704  0.5044513781176391  0.8478674094132160
  0.6521326055017236  0.6521325947211619  0.9955486290103919
  0.6521325826050981  0.3478673854160503  0.0044513724406904
  0.3478673996430054  0.3478674070827165  0.9955486280552244
  0.3478673978625104  0.6521325948098932  0.0044513741454896
  0.4955486234969462  0.6521326354057188  0.1521325985412220
  0.5044513773357439  0.6521326348038325  0.8478674073836049
  0.4955486248820600  0.3478673513617396  0.8478674223494463
  0.5044513871163340  0.3478673664875581  0.1521325951314595
  0.2800236191295032  0.9928949723037398  0.1348070835857367
  0.7199763635285199  0.0071050298805214  0.1348070554545894
  0.7199763807141841  0.9928949761190998  0.8651929199694431
  0.2800236056900762  0.0071050304865883  0.8651929110449063
  0.1348070773253223  0.2800236323168355  0.9928949531129000
  0.1348070536544806  0.7199763505274746  0.0071049892186411
  0.8651929253704127  0.7199763684379721  0.9928949653680669
  0.8651929110584434  0.2800236223310926  0.0071051007100988
  0.9928949738043492  0.1348070550218685  0.2800236610714138
  0.0071050246934259  0.1348070394050980  0.7199763253598206
  0.9928949867208052  0.8651929501573730  0.7199763420317967
  0.0071050269874574  0.8651929258282184  0.2800236429926038
  0.0071050310999710  0.2800236050135134  0.8651929077590608
  0.9928949773235878  0.7199763795302054  0.8651929217770260
  0.0071050300738671  0.7199763618652261  0.1348070584273215
  0.9928949740260470  0.2800236197469561  0.1348070811449987
  0.2800236344451022  0.1348070717136501  0.9928949535562177
  0.7199763538368434  0.1348070582088778  0.0071049853212083
  0.7199763645802216  0.8651929314836303  0.9928949644727944
  0.2800236187644115  0.8651929070509862  0.0071051049250547
  0.1348070428626559  0.0071050253646284  0.7199763255900616
  0.1348070528699148  0.9928949738654391  0.2800236620367380
  0.8651929225914814  0.0071050263367830  0.2800236445874302
  0.8651929515421182  0.9928949860782703  0.7199763409280039
  0.2800236036331666  0.4928949725846626  0.6348070953626325
  0.7199763816045309  0.5071050245822838  0.6348070787288824
  0.7199763628711434  0.4928949647238102  0.3651929437791789
  0.2800236179838638  0.5071050334592557  0.3651929231721680
  0.1348070572387974  0.7800236462770193  0.4928949494926166
  0.1348070728042668  0.2199763659871938  0.5071049810494931
  0.8651929112372941  0.2199763797697258  0.4928949557938325
  0.8651929283539392  0.7800236329791740  0.5071050907018575
  0.9928949820931112  0.6348070550917669  0.7800236577326450
  0.0071050263628338  0.6348070700862465  0.2199763569889562
  0.9928949743212107  0.3651929457923832  0.2199763423684264
  0.0071050271926994  0.3651929630185232  0.7800236746666394
  0.0071050307524065  0.7800236352529932  0.3651929399681591
  0.9928949657897979  0.2199763800661864  0.3651929273880811
  0.0071050296344078  0.2199763952376299  0.6348070949650281
  0.9928949830946109  0.7800236200269336  0.6348070795284193
  0.2800236176877919  0.6348070896352995  0.4928949458137370
  0.7199763675976525  0.6348070735455492  0.5071049765259419
  0.7199763532407135  0.3651929445978692  0.4928949527495463
  0.2800236328529129  0.3651929272365469  0.5071050971318334
  0.1348070546256002  0.5071050285030327  0.2199763381468698
  0.1348070395624209  0.4928949734201934  0.7800236750640775
  0.8651929462030853  0.5071050203233054  0.7800236613245075
  0.8651929267996064  0.4928949764431825  0.2199763567293956
  0.7800236214771463  0.9928949825612081  0.6348070768394627
  0.2199763972470307  0.0071050322570071  0.6348070975778662
  0.2199763780839947  0.9928949649323645  0.3651929317869537
  0.7800236314092479  0.0071050297091264  0.3651929377194220
  0.6348070908318683  0.2800236184877864  0.4928949487128645
  0.6348070740990893  0.7199763676352668  0.5071049758230689
  0.3651929438410500  0.7199763524146156  0.4928949495230331
  0.3651929272638524  0.2800236322960786  0.5071050984854375
  0.4928949758443214  0.1348070396865319  0.7800236738337879
  0.5071050249492934  0.1348070532548368  0.2199763377740814
  0.4928949751032782  0.8651929268811254  0.2199763602194347
  0.5071050170080613  0.8651929474329634  0.7800236614108024
  0.5071050312418456  0.2800236177027417  0.3651929218602469
  0.4928949652668427  0.7199763598649220  0.3651929439369695
  0.5071050210646117  0.7199763816363834  0.6348070793443098
  0.4928949736935326  0.2800236040784754  0.6348070949460465
  0.7800236455052313  0.1348070559832616  0.4928949517094715
  0.2199763659220344  0.1348070723584978  0.5071049823182099
  0.2199763803262809  0.8651929126930069  0.4928949524755856
  0.7800236336366314  0.8651929285194629  0.5071050903718147
  0.6348070682838963  0.0071050243643725  0.2199763528369251
  0.6348070584952851  0.9928949808398119  0.7800236568601905
  0.3651929661745708  0.0071050289558885  0.7800236765652490
  0.3651929413891764  0.9928949718316846  0.2199763439765463
  0.7800236334658299  0.4928949756045378  0.1348070634718705
  0.2199763783745131  0.5071050326365782  0.1348070723737684
  0.2199763959640605  0.4928949655985847  0.8651929059529523
  0.7800236195370602  0.5071050225474357  0.8651929255625543
  0.6348070722048629  0.7800236316648542  0.9928949621032086
  0.6348070927132434  0.2199763813635071  0.0071049843009158
  0.3651929305408911  0.2199763668975642  0.9928949552125620
  0.3651929434112806  0.7800236451504575  0.0071051045372417
  0.4928949721954984  0.6348070710504580  0.2800236410290621
  0.5071050158866290  0.6348070549091669  0.7199763409487423
  0.4928949779294807  0.3651929645722368  0.7199763259747545
  0.5071050274007970  0.3651929420156897  0.2800236588870726
  0.5071050197268425  0.7800236189434825  0.8651929241415663
  0.4928949704412920  0.2199763951582473  0.8651929058619962
  0.5071050299058337  0.2199763791347381  0.1348070734143209
  0.4928949745687616  0.7800236367878640  0.1348070631729902
  0.7800236310380037  0.6348070749051634  0.9928949625860960
  0.2199763803817471  0.6348070880954848  0.0071049894885614
  0.2199763685329396  0.3651929275232275  0.9928949550182441
  0.7800236456427000  0.3651929481340452  0.0071050999475563
  0.6348070571872887  0.5071050180031321  0.7199763411332369
  0.6348070706945741  0.4928949723035451  0.2800236446718484
  0.3651929408790908  0.5071050294173072  0.2800236584796898
  0.3651929650544694  0.4928949739009459  0.7199763248872606
  0.9058591551097163  0.9058591567217193  0.0941408767688588
  0.9058591578142453  0.0941408424697592  0.9058591240706159
  0.0941408426638623  0.9058591572854174  0.9058591247789824
  0.0941408418940886  0.0941408401313527  0.0941408746591312
  0.9058591565980020  0.4058591616016886  0.5941408824058452
  0.9058591559264350  0.5941408452265767  0.4058591290614769
  0.0941408455828224  0.4058591598065830  0.4058591251090229
  0.0941408404973015  0.5941408423879284  0.5941408751022151
  0.4058591617388025  0.9058591568843490  0.5941408832727155
  0.4058591573454161  0.0941408440443420  0.4058591253280445
  0.5941408454704733  0.9058591564109439  0.4058591285457198
  0.5941408444161265  0.0941408394432132  0.5941408738383884
  0.4058591579558958  0.4058591589267518  0.0941408810930599
  0.4058591608993943  0.5941408445962382  0.9058591222037552
  0.5941408465316543  0.4058591627813811  0.9058591237424278
  0.5941408429279122  0.5941408429555883  0.0941408710616693
 
  0.00000000E+00  0.00000000E+00  0.00000000E+00
  0.00000000E+00  0.00000000E+00  0.00000000E+00
  0.00000000E+00  0.00000000E+00  0.00000000E+00
  0.00000000E+00  0.00000000E+00  0.00000000E+00
  0.00000000E+00  0.00000000E+00  0.00000000E+00
  0.00000000E+00  0.00000000E+00  0.00000000E+00
  0.00000000E+00  0.00000000E+00  0.00000000E+00
  0.00000000E+00  0.00000000E+00  0.00000000E+00
  0.00000000E+00  0.00000000E+00  0.00000000E+00
  0.00000000E+00  0.00000000E+00  0.00000000E+00
  0.00000000E+00  0.00000000E+00  0.00000000E+00
  0.00000000E+00  0.00000000E+00  0.00000000E+00
  0.00000000E+00  0.00000000E+00  0.00000000E+00
  0.00000000E+00  0.00000000E+00  0.00000000E+00
  0.00000000E+00  0.00000000E+00  0.00000000E+00
  0.00000000E+00  0.00000000E+00  0.00000000E+00
  0.00000000E+00  0.00000000E+00  0.00000000E+00
  0.00000000E+00  0.00000000E+00  0.00000000E+00
  0.00000000E+00  0.00000000E+00  0.00000000E+00
  0.00000000E+00  0.00000000E+00  0.00000000E+00
  0.00000000E+00  0.00000000E+00  0.00000000E+00
  0.00000000E+00  0.00000000E+00  0.00000000E+00
  0.00000000E+00  0.00000000E+00  0.00000000E+00
  0.00000000E+00  0.00000000E+00  0.00000000E+00
  0.00000000E+00  0.00000000E+00  0.00000000E+00
  0.00000000E+00  0.00000000E+00  0.00000000E+00
  0.00000000E+00  0.00000000E+00  0.00000000E+00
  0.00000000E+00  0.00000000E+00  0.00000000E+00
  0.00000000E+00  0.00000000E+00  0.00000000E+00
  0.00000000E+00  0.00000000E+00  0.00000000E+00
  0.00000000E+00  0.00000000E+00  0.00000000E+00
  0.00000000E+00  0.00000000E+00  0.00000000E+00
  0.00000000E+00  0.00000000E+00  0.00000000E+00
  0.00000000E+00  0.00000000E+00  0.00000000E+00
  0.00000000E+00  0.00000000E+00  0.00000000E+00
  0.00000000E+00  0.00000000E+00  0.00000000E+00
  0.00000000E+00  0.00000000E+00  0.00000000E+00