Molecule from CHK                       
  0.99364205171639575     
    21.0357220903645583    0.0285682762649273    0.0000000405771830
     0.0285693535581914   21.0357182557594697   -0.0000084932819553
     0.0000002414388876   -0.0000084942792261   20.9363314091955210
   Zr   O    C    H 
    24   124   184   106
Direct
  0.8802660808083904  0.4999543928616034  0.4994279434163198
  0.8790164997689206  0.9991875779273364  0.9993087323888517
  0.3855001324505227  0.5004055826180381  0.0018089941852748
  0.3801888763032698  0.0000881371297218  0.4999156327082647
  0.1195321260421277  0.4999220838211724  0.4999163498692584
  0.1142224218715064  0.9995970415204571  0.0018088687219793
  0.6207064864919548  0.5008155072711933  0.9993070688543575
  0.6194547993101537  0.0000458395197977  0.4994285619540064
  0.4998122061925960  0.8804079813944016  0.4994284867470760
  0.5002655982332234  0.3856403607150601  0.0018081818231657
  0.9990475583929911  0.8791566351178492  0.9993075526528089
  0.9999462453954672  0.3803312106830707  0.4999164210114003
  0.4994145559545574  0.4995559354791735  0.8787502553159031
  0.5001598742540205  0.9997024708643033  0.3795083753613966
  0.9995609703660913  0.5003019359661184  0.3795084062084044
  0.0003067734234412  0.0004486894982564  0.8787509824906080
  0.4997800079993976  0.1196741633938794  0.4999153867489331
  0.5006751874991578  0.6208464357843897  0.9993081762944155
  0.9994563635500348  0.1143629057788732  0.0018100228942279
  0.9999037713749725  0.6195969631832008  0.4994281978409267
  0.4960520288131761  0.4961919034636470  0.1173987642371635
  0.5000038881894641  0.9998586691273988  0.6197096671549229
  0.9997154644465280  0.5001470736641493  0.6197101538089536
  0.0036707419408306  0.0038106216961339  0.1173993081516039
  0.5486605207951134  0.5488012415337995  0.9500138831061449
  0.5493387208300035  0.0496802046007103  0.4498818555355159
  0.0495385123092986  0.5494802697856425  0.4498822466634943
  0.0513396491321456  0.0514805068664359  0.9445942296963444
  0.9510622852185000  0.9512029424695365  0.9500143936623836
  0.9503848735150876  0.4503224806403498  0.4498820691222069
  0.4501805252392860  0.9505261469410013  0.4498818926726702
  0.4483823749244681  0.4485224893538111  0.9445930932818801
  0.5494392541438045  0.9504217845424924  0.5491793962338041
  0.5525067505518434  0.4497832848415564  0.0501535266706740
  0.0500798982005227  0.9473557828189264  0.0501543949558460
  0.0495978015972253  0.4502676918810049  0.5497880146156835
  0.9502793986582286  0.5495817089633791  0.5491789969876268
  0.9472147205319925  0.0502209210858995  0.0501560735653699
  0.4496420914601360  0.5526473487673097  0.0501549078822134
  0.4501250419100445  0.0497403030935111  0.5497872309880893
  0.4313350906959663  0.4314750312551813  0.0585592241763864
  0.4323620654569830  0.9327723066381230  0.5673604579661803
  0.9326298936848699  0.4325048242808274  0.5673606546662443
  0.9333122480791182  0.9334518642286449  0.0666377846026924
  0.0683866498487139  0.0685270867994677  0.0585599897061336
  0.0673554014279594  0.5672363888280221  0.5673612426576656
  0.5670940025149919  0.0674980296856143  0.5673609232503696
  0.5664110843573360  0.5665509899053697  0.0666376348024851
  0.4324966869079505  0.0673690887520202  0.4324094031354396
  0.4327744517512347  0.5675685117596816  0.9317678061725381
  0.9322936183339100  0.0670889939931829  0.9317685704389046
  0.9324037696419664  0.5674565349781335  0.4317755538564378
  0.0672281043834920  0.4326381639020543  0.4324098111109415
  0.0669482578790889  0.9324346275904487  0.9317668736670395
  0.5674282900511846  0.4329152475805346  0.9317664429395868
  0.5673146164045814  0.9325453220124276  0.4317757304237771
  0.4055677650833350  0.8295354567803482  0.4966514457593162
  0.9055821062496252  0.8289082261511866  0.9968062536867591
  0.9062481006182309  0.3288396091022147  0.4969082655460838
  0.5934809534000179  0.1711609741771128  0.4969070095756397
  0.5941425219161126  0.6710936849677218  0.9968060485100357
  0.0941488716487192  0.6704729912753667  0.4966499214544842
  0.4058718875106148  0.1706745840006142  0.5031847555677278
  0.4068166031236080  0.6718584188392838  0.0017706650854657
  0.9052585210907376  0.1691421945341454  0.0042950799290700
  0.9058601844410322  0.6706696623048396  0.5024975676362677
  0.5938554929542579  0.8293311233189831  0.5024985179158866
  0.5944627227260997  0.3308608718799542  0.0042923144398228
  0.0929028948188666  0.8281424839872125  0.0017695717032564
  0.0938577859533089  0.3293357662685531  0.5031875718688061
  0.4961205670584480  0.4032657388102765  0.8311337570262090
  0.4971315026205704  0.9051970523732102  0.3281505947519436
  0.9970432337059727  0.4069325753353772  0.3285656577711726
  0.9976950567884972  0.9066911628100731  0.8274386331622966
  0.8288871116205163  0.4970003532276355  0.4058335698783214
  0.8299132246333156  0.9955331228764502  0.9047370351689276
  0.3290155282319309  0.4867734541473100  0.9107920732650635
  0.3294062854558343  0.9978238213452223  0.4050948969003387
  0.5020226902226698  0.5933150920521237  0.8274398727720399
  0.5026779933527943  0.0930717058530573  0.3285652014430867
  0.0025842000628215  0.5948070018960172  0.3281510881900934
  0.0036000014518818  0.0967386194437572  0.8311350813536431
  0.1703886193260342  0.4963597174924307  0.5953582205717436
  0.1742375052671059  0.0044936890839654  0.0891224757394371
  0.6688708063951491  0.4972877320253052  0.0942840190725830
  0.6704242994332212  0.9969694876552920  0.5931372500110881
  0.4938253786794377  0.5911532336952537  0.1705814429785276
  0.4970509057810537  0.0931673820377677  0.6718868548710117
  0.9963498946662942  0.5941228388410392  0.6706179801516756
  0.0004507296481333  0.0977744803259005  0.1662294991786371
  0.1703130806776006  0.5021907610009878  0.4050936334436306
  0.1707085000189844  0.0132294949915271  0.9107929531652519
  0.6698061174800647  0.5044711610916385  0.9047341330952139
  0.6708346957399107  0.0029971674040878  0.4058341175123722
  0.4992717823795188  0.4022286084901799  0.1662278678938852
  0.5033602529103259  0.9058831086723824  0.6706188580445140
  0.0026692484193650  0.4068382489465992  0.6718887261325669
  0.0058960265672435  0.9088493692944142  0.1705812464471687
  0.8292961766726721  0.5030288554683154  0.5931362967899286
  0.8308517785600189  0.0027131150909817  0.0942859578226205
  0.3254858289646927  0.4955092825312595  0.0891229599895065
  0.3293294206775889  0.0036534533924900  0.5953552477510013
  0.8293945860205421  0.4057086643364314  0.4966498380986496
  0.8287697787034563  0.9057208546074165  0.9968065357131993
  0.3286987197296850  0.9063887025248210  0.4969066765398528
  0.1710202352623429  0.5936216552096975  0.4969089467195730
  0.6709552983066226  0.5942812276447215  0.9968062943996120
  0.6703319756444802  0.0942895879335465  0.4966509527769821
  0.1705332666899969  0.4060135704624158  0.5031867461664804
  0.1690007640112319  0.9053987904850586  0.0042941372756344
  0.6717193634998342  0.4069583257358749  0.0017685402864191
  0.6705278542484757  0.9060017234856808  0.5024985648492498
  0.8291897679928693  0.5939971544666983  0.5024975542748918
  0.8280022445669063  0.0930441152727185  0.0017715738954489
  0.3307186641782605  0.5946020577431802  0.0042926385708035
  0.3291941578175265  0.0939991284775390  0.5031859282545708
  0.4031252922692856  0.4962618245245744  0.8311332284146956
  0.4067901826012411  0.9971858306543988  0.3285661052124837
  0.9050558073738865  0.4972746889083671  0.3281501553307836
  0.9065476645786672  0.9978398284649395  0.8274403622954184
  0.4968575879192514  0.8290282032507756  0.4058339610413322
  0.4866346419753080  0.3291548807627115  0.9107919563578020
  0.9953908678740520  0.8300561370210198  0.9047347591936480
  0.9976800437719718  0.3295493067909597  0.4050949384402785
  0.5931713545080097  0.5021673304953181  0.8274377405231775
  0.5946652336709711  0.0027270658486946  0.3281512298536113
  0.0929293091989904  0.5028213918785587  0.3285646234275519
  0.0965973944617194  0.0037428475199046  0.8311349152536033
  0.4962156577109537  0.1705328899745467  0.5953557736539035
  0.4971475405227942  0.6690107651462101  0.0942852579655511
  0.0043544199349407  0.1743771862679239  0.0891238792970588
  0.9968260028410415  0.6705669720347645  0.5931364206152379
  0.5910136628935769  0.4939657519348479  0.1705807002030828
  0.5939798304408369  0.9964945963767821  0.6706185658443267
  0.0930234097548104  0.4971954079806607  0.6718897129326161
  0.0976343766566831  0.0005908822117905  0.1662278034605239
  0.5020464449636792  0.1704560119735254  0.4050938309496748
  0.5043279855008586  0.6699493966221447  0.9047368007562547
  0.0130894114690012  0.1708488149120607  0.9107935774590306
  0.0028549707773286  0.6709763864124380  0.4058340165091042
  0.4020879901365973  0.4994116017184345  0.1662289934385016
  0.4066945890469427  0.0028138403814835  0.6718864590727941
  0.9057399465994920  0.5035052083447736  0.6706182128698068
  0.9087094596684566  0.0060355698174763  0.1705820748161759
  0.5028854769156003  0.8294387398228229  0.5931373817676501
  0.4953711779364416  0.3256258680553664  0.0891222305678098
  0.0025732868060969  0.8309920187512355  0.0942846965048601
  0.0035096602142146  0.3294733116809654  0.5953571810657120
  0.1519734104554381  0.3478973346701288  0.5047048112794501
  0.1510022875299412  0.8472267723966406  0.0045879458810348
  0.6526348019473850  0.3488590850509729  0.0045866703282341
  0.6519586452938760  0.8478989610717705  0.5039563948398390
  0.3477556995705111  0.1521147635434743  0.5047032523450844
  0.3487172970537017  0.6527741300831170  0.0045877667648986
  0.8470864958730224  0.1511434875359166  0.0045892442893546
  0.8477574494508805  0.6521003709180343  0.5039555216134561
  0.1523309536068455  0.6518565839629020  0.4953989504210111
  0.6517158320924191  0.1524717303138636  0.4953985219278143
  0.6523232287736020  0.6524619323693926  0.9957466272707222
  0.3473861052636791  0.8481533044613737  0.4953986415123800
  0.8480126639169275  0.3475270153522332  0.4953985647588807
  0.8474014036322690  0.8475401243060749  0.9957468319188461
  0.5024540090052261  0.1514089891725967  0.3467850977300746
  0.5045984870982485  0.6513637096878921  0.8462978876710050
  0.0103549894078780  0.1538916423515587  0.8515088649850207
  0.0043436156136389  0.6528207195564235  0.3472240082530695
  0.3440934603525737  0.4967999290453650  0.1477595093505623
  0.3484507168599826  0.0054709023457107  0.6535869082252360
  0.8477297982503519  0.5047963639983966  0.6515904549373084
  0.8504383796062609  0.0059375003966660  0.1524771169426415
  0.9972684379647263  0.3485955059928164  0.3467860237690897
  0.9951162333404578  0.8486424482181566  0.8462962090634852
  0.4893653467718108  0.3461127621963459  0.8515072749204385
  0.4953692235358400  0.8471835044341014  0.3472238541763402
  0.1512665442250244  0.5025980097449492  0.3467848335141586
  0.1537504327459880  0.0104975105245621  0.8515083122960119
  0.6512200993728878  0.5047438627433819  0.8462954765351753
  0.6526789800407957  0.0044866106866652  0.3472241585176835
  0.4966601091124641  0.3442339550371412  0.1477586352188981
  0.5046509070182545  0.8478727541501303  0.6515915250625509
  0.0053261276713903  0.3485943425526236  0.6535889674026604
  0.0057970334236993  0.8505783744747969  0.1524759482758566
  0.1556290009546799  0.0032031308532381  0.1477587846507941
  0.1512674088129238  0.4945395363517659  0.6535897686522122
  0.6519901830368416  0.9952028311427475  0.6515913163435829
  0.6492845706833194  0.4940630658423619  0.1524752791165399
  0.0030624756038241  0.1557690622514120  0.1477602957504550
  0.9950575432045997  0.6521330579619501  0.6515904584889554
  0.4943947580356512  0.1514113660857938  0.6535871885791327
  0.4939221273704369  0.6494242688054204  0.1524764141231817
  0.3484530316133146  0.9974120411515596  0.3467860861016231
  0.3459723592745972  0.4895065641913686  0.8515072802029591
  0.8484990918571418  0.9952611575294035  0.8462982316597288
  0.8470423102233938  0.4955125838306479  0.3472234134241594
  0.9984787825627955  0.2987900137886762  0.2953506471431622
  0.9927509757208850  0.7979737669749740  0.7959052347888388
  0.4868962891758792  0.2950962448834392  0.8011103487242093
  0.4926266517869275  0.7960324130293933  0.2970828046023061
  0.5012403645580705  0.2012139086250669  0.2953493926859876
  0.5069557791348349  0.7020327113318243  0.7959069677926760
  0.0128200394021056  0.2049085271576248  0.8011120579609272
  0.0070839940508287  0.7039713211208747  0.2970826972320474
  0.0025363702252852  0.2058431546170390  0.1989133177425685
  0.9926529472791467  0.7029232870614615  0.7018939279447228
  0.4900326399356686  0.2013305051393898  0.7050160941016544
  0.4917529918272713  0.7002164191823541  0.2031637902042254
  0.4971831224474402  0.2941600858426457  0.1989117196368789
  0.5070506615550510  0.7970826958506756  0.7018953087748366
  0.0096840112761428  0.2986747736750847  0.7050179602783363
  0.0079613328207668  0.7997863685100003  0.2031633970419660
  0.2986480056525807  0.9986232655320688  0.2953504331539894
  0.2949548860796132  0.4870401301091791  0.8011110571215276
  0.7978301903185614  0.9928989019278466  0.7959072398437608
  0.7958914844434082  0.4927706477335299  0.2970822583012072
  0.2969591367970840  0.7975007243029988  0.4932995935180206
  0.7973602228296532  0.2970998347162419  0.4932993375087510
  0.7970068956288971  0.7971456674363691  0.9940795507469077
  0.2010717466599999  0.5013846017489387  0.2953492557782782
  0.2047666494661257  0.0129648519797468  0.8011110725346389
  0.7018888569249850  0.5071042519829126  0.7959045706284439
  0.7038299261098829  0.0072277835590851  0.2970830522512701
  0.2025470770013711  0.2973244262710495  0.5070890466021818
  0.2019729096475538  0.7968896091595539  0.0069285890322833
  0.7029715078372050  0.2978880304428895  0.0069278649141739
  0.7025403314430423  0.7973166319130185  0.5062390807026398
  0.2940190222083842  0.4973250018281434  0.1989122738221394
  0.2985315631142621  0.0098299907132327  0.7050160534112565
  0.7969394057025375  0.5071989929695091  0.7018936926377707
  0.7996461465657194  0.0081037053020705  0.2031644610506101
  0.2027574241188917  0.7025096780804446  0.4932996899020738
  0.7023691159878686  0.2028980455086505  0.4932993470110112
  0.7027177041084249  0.7028564501088379  0.9940794604780359
  0.2057025098865579  0.0026791737194160  0.1989121675884377
  0.2011871478450586  0.4901783782011634  0.7050183433058890
  0.7027801680636832  0.9928008928564351  0.7018952402273909
  0.7000765402235292  0.4918955774841912  0.2031626980640586
  0.2971828865411611  0.2026884479926439  0.5070882105804879
  0.2977462803519925  0.7031110972074375  0.0069284427093194
  0.7967494922442167  0.2021143422422205  0.0069292600701566
  0.7971750829710795  0.7026819717981911  0.5062385704622707
  0.3144567088622808  0.7326826173463277  0.4928586150695632
  0.8144382857636785  0.7323470086957141  0.9937281120740106
  0.8143560067740290  0.2321652125365897  0.4928701238144006
  0.6853732938831093  0.2678326486352599  0.4928672677642807
  0.6852862634000286  0.7676550887765540  0.9937287250166928
  0.1852597997583681  0.7673277317617392  0.4928562727631607
  0.3143830237587061  0.2674609609695497  0.5075581716326844
  0.3141922297548361  0.7680818301513912  0.0073605653378785
  0.8145210471306437  0.2667504740404053  0.0074794964848203
  0.8143745189073878  0.7674527117352670  0.5066929764939573
  0.6853407773325202  0.7325459092892209  0.5066921305466066
  0.6851998804524859  0.2332518765399925  0.0074732736338056
  0.1855268036341437  0.7319188768391653  0.0073611563435644
  0.1853469350766327  0.2325518914014793  0.5075582151124306
  0.4867372853667400  0.3127518696364179  0.7360199663344540
  0.4921553506350992  0.8124781466727276  0.2317725892221294
  0.9989711202824810  0.3170756270501343  0.2305053496935613
  0.9925847834875526  0.8148854650528201  0.7307293364178096
  0.7312465223048322  0.4918102427104988  0.3151308467679804
  0.7332119786837638  0.9920279375859604  0.8138787820273831
  0.2299876300127282  0.4875651133195483  0.8178007150450113
  0.2336256388671883  0.0001320150078633  0.3117281131858826
  0.5071182045990529  0.6851207230231252  0.7307310921879688
  0.5007468284699702  0.1829278083655828  0.2305042207503087
  0.0075534061023126  0.6875249704969862  0.2317726148032301
  0.0129777522688837  0.1872531953695939  0.7360215385488305
  0.2661267761436369  0.4883044734132999  0.6883428840273075
  0.2707146306095590  0.0011501258427264  0.1825379671805091
  0.7647440859645480  0.4919076836450977  0.1851608326596974
  0.7673973061013735  0.9926558538405439  0.6839100165334674
  0.4911920585518789  0.6837620332176836  0.2684680316687748
  0.4890715448671827  0.1835638748665298  0.7700220560714944
  0.9918610743063054  0.6860163892733964  0.7670623646086107
  0.0019516025677199  0.1875816511998873  0.2637718219661004
  0.2660939139578503  0.4998744617637744  0.3117277109578208
  0.2697341404987530  0.0124400881544062  0.8177992594384933
  0.7665067498431383  0.5079741765604449  0.8138768241338409
  0.7684747702994837  0.0081871424784312  0.3151322403244029
  0.4977669462401237  0.3124220069230165  0.2637701312408795
  0.5078429385165931  0.8139899226844979  0.7670636998005349
  0.0106437475686343  0.3164410262610208  0.7700241133055309
  0.0085224859112921  0.8162412882432624  0.2684675001172145
  0.7323224994038097  0.5073447386946246  0.6839077235446700
  0.7349787616917481  0.0080920553717008  0.1851620065500061
  0.2290070472826996  0.4988551995222656  0.1825372696460074
  0.2335915781724100  0.0117031686323267  0.6883420579552301
  0.7325421211088110  0.3145973617506255  0.4928556951520935
  0.7322082673797075  0.8145770810066576  0.9937287760269795
  0.2320245849527169  0.8144965922708152  0.4928677951993898
  0.2676920214998135  0.6855138124805695  0.4928702210705169
  0.7675163416163758  0.6854250149025815  0.9937280830459276
  0.7671871669932880  0.1854004126089282  0.4928585571789836
  0.2673195955896311  0.3145245119746322  0.5075585920957280
  0.2666090805854124  0.8146608941285446  0.0074761296801227
  0.7679422565878929  0.3143338464660537  0.0073633047456542
  0.7673110193609720  0.8145162013739295  0.5066932406315319
  0.7324043906336429  0.6854823726934889  0.5066918746230933
  0.7317787333829288  0.1856684947183116  0.0073584672185696
  0.2331100074363628  0.6853398222483099  0.0074765646350646
  0.2324103508485001  0.1854884182285403  0.5075577996089842
  0.3126092227007200  0.4868814614249683  0.7360202997501768
  0.3169344306295764  0.9991165340124623  0.2305053787649762
  0.8123378989616609  0.4923001109431077  0.2317721930533223
  0.8147421511985814  0.9927341932047027  0.7307313736972794
  0.4916671324747798  0.7313874997420134  0.3151317358478832
  0.4874197243375110  0.2301287947515777  0.8177989583765836
  0.9918800070935699  0.7333557318316835  0.8138772063729079
  0.9999884802156137  0.2337677976771981  0.3117289270276529
  0.6849772476270165  0.5072680807027232  0.7307286326330363
  0.6873843659828934  0.0076992643742795  0.2317728057013007
  0.1827862960743164  0.5008904778314752  0.2305038959050693
  0.1871105239843032  0.0131244663366637  0.7360208037188111
  0.4881595022430792  0.2662703689051016  0.6883416318371540
  0.4917635951295201  0.7648838858776796  0.1851615869641234
  0.0010055357027026  0.2708551277326212  0.1825385074366021
  0.9925065204617255  0.7675402989351353  0.6839082637336035
  0.6836215204997905  0.4913344225586365  0.2684667757750580
  0.6858728939263400  0.9920090671398731  0.7670636343861864
  0.1834217826531370  0.4892179615245281  0.7700247043620138
  0.1874401640151911  0.0020943855304793  0.2637704372008961
  0.4997301832877871  0.2662361858864433  0.3117274311719215
  0.5078256044952204  0.7666508236286278  0.8138787357847763
  0.0122957055911808  0.2698759550243260  0.8178008545522125
  0.0080454262057904  0.7686162303762697  0.3151314328662401
  0.3122802512876508  0.4979101364450293  0.2637708698126207
  0.3162986122164649  0.0107888341612299  0.7700219572701164
  0.8138461538628212  0.5079914688266809  0.7670621520740669
  0.8161003554706950  0.0086634280806840  0.2684687565299159
  0.5071950010121504  0.7324656130616053  0.6839098489278801
  0.4987127168544401  0.2291480018726772  0.1825371487528367
  0.0079468505793072  0.7351188555347292  0.1851613789566297
  0.0115560418130417  0.2337348660289035  0.6883433743428731
  0.4056354804891538  0.0942306427405575  0.4057591523873291
  0.4047910607763925  0.5937923126417952  0.9056484716115356
  0.9060693103915870  0.0950715765705667  0.9056488819585595
  0.9057105786184499  0.5941484625130637  0.4047900507933251
  0.0940897265963827  0.4057767300295417  0.4057598114179519
  0.0949306885927766  0.9062108129452698  0.9056464866838400
  0.5936516643385967  0.4049320472630511  0.9056464361830041
  0.5940066547715981  0.9058520400452340  0.4047903736459418
  0.4055661785444374  0.9062096457365346  0.5942253647690900
  0.9060668818397896  0.4057090007474919  0.5942252831659350
  0.9076816038324698  0.9078214328721345  0.0954994832709770
  0.0941503442889387  0.5938002658075839  0.5942259393426820
  0.5936575674980639  0.0942931225861433  0.5942257692072257
  0.5920413510271842  0.5921815710678514  0.0954996044037527
  0.3650971634557689  0.7202775172224499  0.4928634138166446
  0.8650450068804719  0.7198323728126236  0.9937692555237326
  0.8648937806531989  0.2193343210908288  0.4928878670451266
  0.6348354879225299  0.2806634383332170  0.4928828181005303
  0.6346794877076674  0.7801696114016015  0.9937703819007532
  0.1346192950223542  0.7797327520481925  0.4928593308090076
  0.3649568865514823  0.2798497204734849  0.5074475355015233
  0.3646181677708297  0.7810723626228596  0.0072546116631079
  0.8652253379507550  0.2786194761716648  0.0075747390043380
  0.8649509393964612  0.7798335306690558  0.5065969497988843
  0.6347643053957895  0.7201651350081343  0.5065953876294176
  0.6344955680611776  0.2213828327444924  0.0075636563154458
  0.1351008462756013  0.7189283484477366  0.0072557211668141
  0.1347730613966308  0.2201631451662332  0.5074476185696086
  0.4861851066736254  0.3634090377426288  0.7238574369961736
  0.4925413117429056  0.8628988285756883  0.2185731254560568
  0.9976781330046985  0.3678350937099374  0.2187719223642221
  0.9929422993739472  0.8653886216866450  0.7178795738725934
  0.7193360742548843  0.4918651183148101  0.3660958002560709
  0.7212219627120829  0.9918545380031520  0.8648147324427895
  0.2168326744010048  0.4875565424431174  0.8684713064339202
  0.2203519433132948  0.9996819939717996  0.3623504844860423
  0.5067604196687219  0.6346174919573601  0.7178815618873711
  0.5020394612451577  0.1321682464444189  0.2187710722404214
  0.0071652905296057  0.6371041832348608  0.2185735618187393
  0.0135294531267228  0.1365960692049150  0.7238587099923585
  0.2791400760807713  0.4886494144519642  0.6376501540527579
  0.2840251995637034  0.0012440018072821  0.1319238034762026
  0.7766482736721263  0.4920268903872279  0.1342078679718618
  0.7793719387580118  0.9929448477843452  0.6329687021423772
  0.4908719409721231  0.6333291173552928  0.2816557084839810
  0.4902485319430924  0.1328841130280286  0.7821453410633924
  0.9916957293261260  0.6355049262954625  0.7798863963849385
  0.0028308051728976  0.1368137031274590  0.2754777441770775
  0.2793668243375496  0.5003249575202722  0.3623502749965278
  0.2828902946454888  0.0124476986067967  0.8684695355515337
  0.7784961424602409  0.5081480382042167  0.8648128972391316
  0.7803846139051267  0.0081314492121747  0.3660973228709388
  0.4968875888548969  0.3631900266289207  0.2754757915828709
  0.5080087923866694  0.8645014509299975  0.7798875268025633
  0.0094665740144740  0.3671207262236551  0.7821477280918226
  0.0088448549795649  0.8666742935654352  0.2816547898102676
  0.7203483167153818  0.5070551265630603  0.6329663193685858
  0.7230750062904934  0.0079737345062779  0.1342089500274240
  0.2156970892976430  0.4987609541944089  0.1319229351808194
  0.2205769266515368  0.0113590444921014  0.6376496612333215
  0.7201369917876630  0.3652378258039743  0.4928585244403768
  0.7196936580037457  0.8651838293248406  0.9937704648475834
  0.2191937453107126  0.8650343974028786  0.4928835167119256
  0.2805227933652937  0.6349760067719871  0.4928878035856319
  0.7800309066938066  0.6348182538354705  0.9937692270815220
  0.7795922040133171  0.1347599112493710  0.4928635469327630
  0.2797083925026330  0.3650983828318975  0.5074482827793965
  0.2784783271669967  0.8653651485557798  0.0075687583502945
  0.7809329150055732  0.3647597659169508  0.0072595095960658
  0.7796917188980091  0.8650926719652068  0.5065974031967355
  0.7200236153974636  0.6349059025475321  0.5065949679698249
  0.7187879764966617  0.1352425971203089  0.0072508441529766
  0.2212406956940010  0.6346355737384729  0.0075695553935664
  0.2200214851765547  0.1349145702557389  0.5074468745965255
  0.3632661289507118  0.4863284681460249  0.7238566613973169
  0.3676940599306069  0.9978245656104042  0.2187726251694057
  0.8627586840325321  0.4926869774969230  0.2185732381868256
  0.8652453454288418  0.9930921807110722  0.7178818489116131
  0.4917222943876657  0.7194774519909474  0.3660967704837852
  0.4874110375909488  0.2169730044679725  0.8684693134990683
  0.9917073166115449  0.7213661110398556  0.8648132292617273
  0.9995388375293086  0.2204946979384392  0.3623514449240993
  0.6344740956556219  0.5069107506489389  0.7178787771750302
  0.6369637119205718  0.0073130300670104  0.2185731604635016
  0.1320268709412024  0.5021832897509286  0.2187701922028756
  0.1364532582065434  0.0136769025314127  0.7238586848619808
  0.4885047026217292  0.2792845428814248  0.6376491335660608
  0.4918823566072381  0.7767877670265253  0.1342085597736283
  0.0010990016772699  0.2841651466347127  0.1319242029817227
  0.9927950747365226  0.7795145980719601  0.6329668854253343
  0.6331884991287671  0.4910134170559782  0.2816539499205324
  0.6353613641809029  0.9918431427510969  0.7798874118295949
  0.1327422943249398  0.4903958897761532  0.7821491087511950
  0.1366720495988334  0.0029726435183427  0.2754756751540640
  0.5001799268784232  0.2795095392329334  0.3623498999766124
  0.5080001062513493  0.7786406743718809  0.8648147230650927
  0.0123044782680892  0.2830316492246167  0.8684712685082211
  0.0079909905917067  0.7805265421079783  0.3660964194147238
  0.3630481259977230  0.4970307216751647  0.2754770746589846
  0.3669784455752658  0.0096110806015849  0.7821448501622248
  0.8643575825522791  0.5081567379038801  0.7798862993000647
  0.8665332251100587  0.0089838842290923  0.2816566224689659
  0.5069050103669541  0.7204910365098273  0.6329685243877810
  0.4986191740279823  0.2158376658979831  0.1319229067008592
  0.0078270815481593  0.7232147124826782  0.1342084055355849
  0.0112109355536777  0.2207207210034610  0.6376508480831840

  0.00000000E+00  0.00000000E+00  0.00000000E+00
  0.00000000E+00  0.00000000E+00  0.00000000E+00
  0.00000000E+00  0.00000000E+00  0.00000000E+00
  0.00000000E+00  0.00000000E+00  0.00000000E+00
  0.00000000E+00  0.00000000E+00  0.00000000E+00
  0.00000000E+00  0.00000000E+00  0.00000000E+00
  0.00000000E+00  0.00000000E+00  0.00000000E+00
  0.00000000E+00  0.00000000E+00  0.00000000E+00
  0.00000000E+00  0.00000000E+00  0.00000000E+00
  0.00000000E+00  0.00000000E+00  0.00000000E+00
  0.00000000E+00  0.00000000E+00  0.00000000E+00
  0.00000000E+00  0.00000000E+00  0.00000000E+00
  0.00000000E+00  0.00000000E+00  0.00000000E+00
  0.00000000E+00  0.00000000E+00  0.00000000E+00
  0.00000000E+00  0.00000000E+00  0.00000000E+00
  0.00000000E+00  0.00000000E+00  0.00000000E+00
  0.00000000E+00  0.00000000E+00  0.00000000E+00
  0.00000000E+00  0.00000000E+00  0.00000000E+00
  0.00000000E+00  0.00000000E+00  0.00000000E+00
  0.00000000E+00  0.00000000E+00  0.00000000E+00
  0.00000000E+00  0.00000000E+00  0.00000000E+00
  0.00000000E+00  0.00000000E+00  0.00000000E+00
  0.00000000E+00  0.00000000E+00  0.00000000E+00
  0.00000000E+00  0.00000000E+00  0.00000000E+00
  0.00000000E+00  0.00000000E+00  0.00000000E+00
  0.00000000E+00  0.00000000E+00  0.00000000E+00
  0.00000000E+00  0.00000000E+00  0.00000000E+00
  0.00000000E+00  0.00000000E+00  0.00000000E+00
  0.00000000E+00  0.00000000E+00  0.00000000E+00
  0.00000000E+00  0.00000000E+00  0.00000000E+00
  0.00000000E+00  0.00000000E+00  0.00000000E+00
  0.00000000E+00  0.00000000E+00  0.00000000E+00
  0.00000000E+00  0.00000000E+00  0.00000000E+00
  0.00000000E+00  0.00000000E+00  0.00000000E+00
  0.00000000E+00  0.00000000E+00  0.00000000E+00
  0.00000000E+00  0.00000000E+00  0.00000000E+00
  0.00000000E+00  0.00000000E+00  0.00000000E+00
  0.00000000E+00  0.00000000E+00  0.00000000E+00
  0.00000000E+00  0.00000000E+00  0.00000000E+00
  0.00000000E+00  0.00000000E+00  0.00000000E+00
  0.00000000E+00  0.00000000E+00  0.00000000E+00
  0.00000000E+00  0.00000000E+00  0.00000000E+00
  0.00000000E+00  0.00000000E+00  0.00000000E+00
  0.00000000E+00  0.00000000E+00  0.00000000E+00
  0.00000000E+00  0.00000000E+00  0.00000000E+00
  0.00000000E+00  0.00000000E+00  0.00000000E+00
  0.00000000E+00  0.00000000E+00  0.00000000E+00
  0.00000000E+00  0.00000000E+00  0.00000000E+00
  0.00000000E+00  0.00000000E+00  0.00000000E+00
  0.00000000E+00  0.00000000E+00  0.00000000E+00
  0.00000000E+00  0.00000000E+00  0.00000000E+00
  0.00000000E+00  0.00000000E+00  0.00000000E+00
  0.00000000E+00  0.00000000E+00  0.00000000E+00
  0.00000000E+00  0.00000000E+00  0.00000000E+00
  0.00000000E+00  0.00000000E+00  0.00000000E+00
  0.00000000E+00  0.00000000E+00  0.00000000E+00
  0.00000000E+00  0.00000000E+00  0.00000000E+00
  0.00000000E+00  0.00000000E+00  0.00000000E+00
  0.00000000E+00  0.00000000E+00  0.00000000E+00
  0.00000000E+00  0.00000000E+00  0.00000000E+00