UiO66_1brick                            
   1.0067290718839101     
    14.6699903333087480    0.0000004023800947    0.0000023091867603
     7.3349954963261448   12.7045850602122048    0.0000031003059516
     7.3349971463639463    4.2348636390701229   11.9779987325266823
   O    C    Zr   H 
    32    48     6    28
Direct
  0.0738428990683637  0.9201817515513290  0.2677187974763975
  0.2677187592589502  0.7382562165050320  0.0738434267450453
  0.9201815589980913  0.0738426793589733  0.7382566072406130
  0.0673950415626313  0.7978146416686345  0.0673950844621960
  0.7382563351267403  0.2677185265696821  0.9201823562964275
  0.7382562994424204  0.0738432325151214  0.2677187644866986
  0.9201819440571247  0.2677187887565841  0.0738426544460926
  0.2677185626656650  0.9201824530695381  0.7382563369214908
  0.0738424860293493  0.7382566284627138  0.9201817239256928
  0.9503270198582026  0.9503270627648219  0.9503270740407458
  0.9503270468897649  0.9503269412048346  0.1490188677730281
  0.1490188829496603  0.9503269673293180  0.9503270252476677
  0.9503270157660547  0.1490188425584054  0.9503269471001142
  0.0738429295771137  0.2677188378453786  0.9201816609985088
  0.2677187922001292  0.0738434113113904  0.7382562057354338
  0.7978146928011702  0.0673950110755391  0.0673950184259599
  0.0673950214300282  0.0673950373337669  0.7978146890075091
  0.9201815489569363  0.7382565293930929  0.0738427804211655
  0.0673951529207428  0.0673950582319980  0.0673950379294632
  0.7382563029380078  0.9201823278259151  0.2677185552103553
  0.9201819167666841  0.0738427454144028  0.2677187810835310
  0.7382562934545609  0.2677187332589980  0.0738432800083004
  0.0738425757048574  0.9201816478789909  0.7382566243192491
  0.2677185561083230  0.7382563088537986  0.9201824742282010
  0.7382566040684826  0.9201815382180282  0.0738427358710013
  0.0738434042509641  0.2677187511232497  0.7382562432511734
  0.2677188940011747  0.0738427896020695  0.9201817005575281
  0.2677188404951584  0.9201817869238081  0.0738427466363768
  0.0738433539343817  0.7382562813876439  0.2677187600104751
  0.7382566839446264  0.0738425622198739  0.9201816081795745
  0.9201823990169318  0.2677185347670208  0.7382563629116895
  0.9201823775569871  0.7382563015147748  0.2677185552268616
  0.5543414718894765  0.4602598100048301  0.0748360794734899
  0.9931814035024810  0.4122170217191878  0.9931812956120156
  0.4122170265164644  0.9931816791282652  0.6014200991404411
  0.9931811940479757  0.6014202119857451  0.9931812783936531
  0.5543404497848621  0.9105640001626588  0.4602590621191724
  0.6014201200783968  0.9931816603394186  0.4122170018226564
  0.9931814387995008  0.9931812797742301  0.4122170212957326
  0.6014202256855317  0.4122170781200888  0.9931815480191227
  0.9931811729925804  0.9931812643453461  0.6014202452981077
  0.4122171083887821  0.6014201823931954  0.9931816777490942
  0.4122171260835261  0.9931812080273906  0.9931813087601260
  0.9931816640531074  0.6014201968536943  0.4122170802875073
  0.6014203351945546  0.9931811570685195  0.9931811549857205
  0.9931815674518604  0.4122170792106683  0.6014202160119420
  0.9105635405366659  0.4602591339799411  0.0748362906140065
  0.4602589506607148  0.9105640738280342  0.5543405788685630
  0.0748356714182573  0.5543414622356476  0.9105629024882632
  0.4602601388678693  0.0748358903344014  0.5543414805951467
  0.5543416524080188  0.0748357997397234  0.4602599748289888
  0.0748360693646410  0.9105632033454855  0.4602595523725043
  0.5543408821648027  0.4602594087431414  0.9105637138259417
  0.9105631656631511  0.0748359562969520  0.5543410416726323
  0.4602599267350455  0.0748357872367756  0.9105627323928661
  0.9105638584042879  0.5543405796233728  0.4602591286659832
  0.5543408617726645  0.9105631762681551  0.0748363471268478
  0.0748357239896947  0.5543416855655480  0.4602601382262681
  0.5543415015769595  0.0748355517825283  0.9105628442111924
  0.9105639931139790  0.4602590650186202  0.5543406661137611
  0.0748360519769827  0.9105630658361307  0.5543411394646800
  0.0748358645438173  0.4602598861031246  0.9105628499458170
  0.9105633738319860  0.5543406848129477  0.0748363486654783
  0.9955195964269569  0.3087480818070739  0.9955194144370297
  0.3087480328775280  0.9955199715591088  0.7002126251724932
  0.9955192911747260  0.7002128241787466  0.9955194182907027
  0.3087480473166283  0.7002126459862773  0.9955198839619107
  0.3087481288643130  0.9955195499722799  0.9955193444192344
  0.7002126500718092  0.9955199290640394  0.3087480143389517
  0.9955198467463570  0.7002126447231565  0.3087480632412831
  0.7002128583296697  0.9955191590577342  0.9955194628914067
  0.9955200431139857  0.3087480304753512  0.7002126816423574
  0.9955194768567590  0.9955195845571084  0.3087480432959055
  0.4602599405615007  0.5543413307041548  0.0748360199876700
  0.7002126971471023  0.3087480172003577  0.9955200124028079
  0.9955194168178452  0.9955192501055747  0.7002128397582509
  0.0748358744696630  0.4602601684638957  0.5543416563540944
  0.4602592885741607  0.9105633869477170  0.0748362401207363
  0.9105631726925072  0.0748361042702503  0.4602594530445523
  0.4602593508637742  0.5543409370452174  0.9105636501285652
  0.8803330174591603  0.1196668780818699  0.8803330228897269
  0.1196670027154294  0.1196669643229475  0.8803329463680144
  0.1196669042412468  0.8803330036083362  0.8803330442356474
  0.8803329855519684  0.8803329603476345  0.1196669553514368
  0.8803330512672370  0.1196669149137033  0.1196669002383591
  0.1196669487175014  0.8803329883766503  0.1196669366878998
  0.5924328564279404  0.1380002409188629  0.4220432942873524
  0.1380009834880563  0.8475246143496171  0.4220425529139254
  0.5924314606055715  0.4220422695681164  0.8475252507684777
  0.8475244858381632  0.1380008182749037  0.5924318031519239
  0.4220431336403180  0.5924322392417333  0.1380007121627898
  0.4220431373629290  0.1380003809458134  0.8475240107772956
  0.8475257171891456  0.5924309561516519  0.4220417329234017
  0.5924314084113891  0.8475248217779875  0.1380013480578617
  0.1380002506588289  0.4220435582841666  0.5924328122004066
  0.1380002275760188  0.5924328838015943  0.4220434647910302
  0.5924325622518599  0.1380002188241563  0.8475239519708498
  0.8475257376369276  0.4220416359601646  0.5924310904922137
  0.4220419932083441  0.8475250167793122  0.1380013627969570
  0.8475246848066538  0.1380009191670860  0.4220423904678782
  0.4220421473549940  0.5924315775423172  0.8475252859230856
  0.1380008130974689  0.8475244823524328  0.5924319679406009
  0.5924324491909884  0.4220429446901424  0.1380006678271469
  0.5924307815291406  0.8475258291880435  0.4220417087749562
  0.1380004951391335  0.4220431508287282  0.8475240896851907
  0.4220435696902487  0.1380002956941094  0.5924325880971174
  0.8475249819125478  0.5924311741880234  0.1380013867075805
  0.0941393235248327  0.0941393215785294  0.7175817620341421
  0.0941393396558453  0.7175817025334252  0.0941393802254605
  0.7175817552354612  0.0941393136042693  0.0941393272171138
  0.0941394516321900  0.0941393675926898  0.0941393434544115
  0.8475252331787593  0.4220417951579329  0.1380013603515147
  0.4220415043374894  0.8475258721812251  0.5924310181148471
  0.1380002512619375  0.5924325446753165  0.8475240834032328

  0.00000000E+00  0.00000000E+00  0.00000000E+00
  0.00000000E+00  0.00000000E+00  0.00000000E+00
  0.00000000E+00  0.00000000E+00  0.00000000E+00
  0.00000000E+00  0.00000000E+00  0.00000000E+00
  0.00000000E+00  0.00000000E+00  0.00000000E+00
  0.00000000E+00  0.00000000E+00  0.00000000E+00
  0.00000000E+00  0.00000000E+00  0.00000000E+00
  0.00000000E+00  0.00000000E+00  0.00000000E+00
  0.00000000E+00  0.00000000E+00  0.00000000E+00
  0.00000000E+00  0.00000000E+00  0.00000000E+00
  0.00000000E+00  0.00000000E+00  0.00000000E+00
  0.00000000E+00  0.00000000E+00  0.00000000E+00
  0.00000000E+00  0.00000000E+00  0.00000000E+00
  0.00000000E+00  0.00000000E+00  0.00000000E+00
  0.00000000E+00  0.00000000E+00  0.00000000E+00
  0.00000000E+00  0.00000000E+00  0.00000000E+00
  0.00000000E+00  0.00000000E+00  0.00000000E+00
  0.00000000E+00  0.00000000E+00  0.00000000E+00
  0.00000000E+00  0.00000000E+00  0.00000000E+00
  0.00000000E+00  0.00000000E+00  0.00000000E+00
  0.00000000E+00  0.00000000E+00  0.00000000E+00
  0.00000000E+00  0.00000000E+00  0.00000000E+00
  0.00000000E+00  0.00000000E+00  0.00000000E+00
  0.00000000E+00  0.00000000E+00  0.00000000E+00
  0.00000000E+00  0.00000000E+00  0.00000000E+00
  0.00000000E+00  0.00000000E+00  0.00000000E+00
  0.00000000E+00  0.00000000E+00  0.00000000E+00
  0.00000000E+00  0.00000000E+00  0.00000000E+00
  0.00000000E+00  0.00000000E+00  0.00000000E+00
  0.00000000E+00  0.00000000E+00  0.00000000E+00
  0.00000000E+00  0.00000000E+00  0.00000000E+00
  0.00000000E+00  0.00000000E+00  0.00000000E+00
  0.00000000E+00  0.00000000E+00  0.00000000E+00
  0.00000000E+00  0.00000000E+00  0.00000000E+00
  0.00000000E+00  0.00000000E+00  0.00000000E+00
  0.00000000E+00  0.00000000E+00  0.00000000E+00
  0.00000000E+00  0.00000000E+00  0.00000000E+00
  0.00000000E+00  0.00000000E+00  0.00000000E+00
  0.00000000E+00  0.00000000E+00  0.00000000E+00
  0.00000000E+00  0.00000000E+00  0.00000000E+00
  0.00000000E+00  0.00000000E+00  0.00000000E+00
  0.00000000E+00  0.00000000E+00  0.00000000E+00
  0.00000000E+00  0.00000000E+00  0.00000000E+00
  0.00000000E+00  0.00000000E+00  0.00000000E+00
  0.00000000E+00  0.00000000E+00  0.00000000E+00
  0.00000000E+00  0.00000000E+00  0.00000000E+00
  0.00000000E+00  0.00000000E+00  0.00000000E+00
  0.00000000E+00  0.00000000E+00  0.00000000E+00
  0.00000000E+00  0.00000000E+00  0.00000000E+00
  0.00000000E+00  0.00000000E+00  0.00000000E+00
  0.00000000E+00  0.00000000E+00  0.00000000E+00
  0.00000000E+00  0.00000000E+00  0.00000000E+00
  0.00000000E+00  0.00000000E+00  0.00000000E+00
  0.00000000E+00  0.00000000E+00  0.00000000E+00
  0.00000000E+00  0.00000000E+00  0.00000000E+00
  0.00000000E+00  0.00000000E+00  0.00000000E+00
  0.00000000E+00  0.00000000E+00  0.00000000E+00
  0.00000000E+00  0.00000000E+00  0.00000000E+00
  0.00000000E+00  0.00000000E+00  0.00000000E+00
  0.00000000E+00  0.00000000E+00  0.00000000E+00
  0.00000000E+00  0.00000000E+00  0.00000000E+00
  0.00000000E+00  0.00000000E+00  0.00000000E+00
  0.00000000E+00  0.00000000E+00  0.00000000E+00
  0.00000000E+00  0.00000000E+00  0.00000000E+00
  0.00000000E+00  0.00000000E+00  0.00000000E+00
  0.00000000E+00  0.00000000E+00  0.00000000E+00
  0.00000000E+00  0.00000000E+00  0.00000000E+00
  0.00000000E+00  0.00000000E+00  0.00000000E+00
  0.00000000E+00  0.00000000E+00  0.00000000E+00
  0.00000000E+00  0.00000000E+00  0.00000000E+00
  0.00000000E+00  0.00000000E+00  0.00000000E+00
  0.00000000E+00  0.00000000E+00  0.00000000E+00
  0.00000000E+00  0.00000000E+00  0.00000000E+00
  0.00000000E+00  0.00000000E+00  0.00000000E+00
  0.00000000E+00  0.00000000E+00  0.00000000E+00
  0.00000000E+00  0.00000000E+00  0.00000000E+00
  0.00000000E+00  0.00000000E+00  0.00000000E+00
  0.00000000E+00  0.00000000E+00  0.00000000E+00
  0.00000000E+00  0.00000000E+00  0.00000000E+00
  0.00000000E+00  0.00000000E+00  0.00000000E+00
  0.00000000E+00  0.00000000E+00  0.00000000E+00
  0.00000000E+00  0.00000000E+00  0.00000000E+00
  0.00000000E+00  0.00000000E+00  0.00000000E+00
  0.00000000E+00  0.00000000E+00  0.00000000E+00
  0.00000000E+00  0.00000000E+00  0.00000000E+00
  0.00000000E+00  0.00000000E+00  0.00000000E+00
  0.00000000E+00  0.00000000E+00  0.00000000E+00
  0.00000000E+00  0.00000000E+00  0.00000000E+00
  0.00000000E+00  0.00000000E+00  0.00000000E+00
  0.00000000E+00  0.00000000E+00  0.00000000E+00
  0.00000000E+00  0.00000000E+00  0.00000000E+00
  0.00000000E+00  0.00000000E+00  0.00000000E+00
  0.00000000E+00  0.00000000E+00  0.00000000E+00
  0.00000000E+00  0.00000000E+00  0.00000000E+00
  0.00000000E+00  0.00000000E+00  0.00000000E+00
  0.00000000E+00  0.00000000E+00  0.00000000E+00
  0.00000000E+00  0.00000000E+00  0.00000000E+00
  0.00000000E+00  0.00000000E+00  0.00000000E+00
  0.00000000E+00  0.00000000E+00  0.00000000E+00
  0.00000000E+00  0.00000000E+00  0.00000000E+00
  0.00000000E+00  0.00000000E+00  0.00000000E+00
  0.00000000E+00  0.00000000E+00  0.00000000E+00
  0.00000000E+00  0.00000000E+00  0.00000000E+00
  0.00000000E+00  0.00000000E+00  0.00000000E+00
  0.00000000E+00  0.00000000E+00  0.00000000E+00
  0.00000000E+00  0.00000000E+00  0.00000000E+00
  0.00000000E+00  0.00000000E+00  0.00000000E+00
  0.00000000E+00  0.00000000E+00  0.00000000E+00
  0.00000000E+00  0.00000000E+00  0.00000000E+00
  0.00000000E+00  0.00000000E+00  0.00000000E+00
  0.00000000E+00  0.00000000E+00  0.00000000E+00
  0.00000000E+00  0.00000000E+00  0.00000000E+00
  0.00000000E+00  0.00000000E+00  0.00000000E+00
  0.00000000E+00  0.00000000E+00  0.00000000E+00
