Molecule from CHK                       
  0.99395803222944368     
    21.0069021146416191    0.0000000606873584    0.0000000608622196
     0.0000000938091375   21.0069187737731049    0.0000000555755131
     0.0000000730509871    0.0000000822971217   21.0069315574956867
   O    H    C    Zr
    96    72   108    18
Direct
  0.9054719463545631  0.1717222050374058  0.4966372017415921
  0.0945280687892780  0.8282778104813707  0.4966371979433601
  0.0945280625292891  0.1717222072092650  0.5033627881081110
  0.9054719532969354  0.8282778094379624  0.5033627879505095
  0.4966372108765207  0.9054719884761268  0.1717221197879843
  0.4966372017886785  0.0945280261656812  0.8282778959120497
  0.5033627841458697  0.0945279852767400  0.1717221391086690
  0.5033627786523052  0.9054720278662878  0.8282778807695254
  0.1717223479270818  0.4966371923830910  0.9054721374642801
  0.8282776583383392  0.4966371969740523  0.0945278725550780
  0.1717223307866575  0.5033627984959018  0.0945279074136038
  0.8282776781525698  0.5033627877957384  0.9054721091041679
  0.1717223278207605  0.9054720538247303  0.4966372332798779
  0.8282776881703987  0.0945279608682375  0.4966372247173261
  0.1717223241489014  0.0945279649874406  0.5033627605712703
  0.8282776921867868  0.9054720517912652  0.5033627576623626
  0.9054718916906008  0.4966371644526987  0.1717220940020590
  0.0945281140913383  0.4966371601561722  0.8282779163619985
  0.0945280801388922  0.5033628269492851  0.1717221125353964
  0.9054719288844149  0.5033628244615037  0.8282779045293872
  0.4966371773487152  0.1717222184646189  0.9054720937364887
  0.4966371797710857  0.8282777945772907  0.0945279236422077
  0.5033628123120216  0.1717221976717989  0.0945279604613825
  0.5033628023521892  0.8282778154607967  0.9054720589342458
  0.0497592201575713  0.0497592057334098  0.5495444647176648
  0.9502407921401615  0.9502408071386037  0.5495444638243874
  0.9502407917289131  0.0497592055515741  0.4504555280796956
  0.0497592237831459  0.9502408084819567  0.4504555290548634
  0.5495445324043772  0.0497591811965204  0.0497591770196060
  0.5495445286726970  0.9502408294600569  0.9502408345219392
  0.4504554622832758  0.9502408191059003  0.0497591702499126
  0.4504554614261994  0.0497591947261072  0.9502408472856949
  0.0497592067609341  0.5495444972193771  0.0497591865248134
  0.9502408006767783  0.5495444949872877  0.9502408242887840
  0.0497592187724183  0.4504554968251923  0.9502408348305225
  0.9502407914814394  0.4504554967228938  0.0497591794946053
  0.1706603839628680  0.9971496289081585  0.4060838157393860
  0.8293396324928337  0.0028503801216214  0.4060838044333076
  0.8293396247120343  0.9971496280047412  0.5939161832298367
  0.1706603896568533  0.0028503809082896  0.5939161806362752
  0.4060837240372024  0.1706601863264271  0.9971496794397070
  0.4060837147367889  0.8293398302511342  0.0028503453641454
  0.5939162732192558  0.8293398219590337  0.9971496277157633
  0.5939162715060234  0.1706601890273215  0.0028503712948606
  0.9971496451722124  0.4060837669515275  0.1706602134007001
  0.0028503590937396  0.4060837593383605  0.8293398048661564
  0.9971496798758309  0.5939162301949052  0.8293397943189766
  0.0028503222026037  0.5939162283995054  0.1706602147395336
  0.9971496406904133  0.1706603284220025  0.4060838076436140
  0.0028503692193860  0.8293396845448913  0.4060838008626518
  0.9971496489257367  0.8293396788572782  0.5939161898457362
  0.0028503605881554  0.1706603362537735  0.5939161854613887
  0.1706603351343985  0.4060837805551492  0.9971496733533494
  0.8293396799232877  0.4060837697741672  0.0028503495370565
  0.8293396715295638  0.5939162193424883  0.9971496248501951
  0.1706603380932784  0.5939162160418940  0.0028503687929356
  0.4060837250468374  0.9971496058158400  0.1706601450809316
  0.4060837151387550  0.0028504024810088  0.8293398762404189
  0.5939162720641904  0.9971496447155794  0.8293398635613010
  0.5939162752309292  0.0028503627705874  0.1706601430352515
  0.0675649502151982  0.9324350916599474  0.5672050558827785
  0.9324350598877242  0.0675649191991351  0.5672050549513730
  0.9324350662640479  0.9324350931558055  0.4327949369965877
  0.0675649506927240  0.0675649221836622  0.4327949367537427
  0.5672051354019085  0.0675649064815380  0.9324351332136374
  0.5672051373661362  0.9324351017681898  0.0675648750216240
  0.4327948533135090  0.9324351216903503  0.9324351265500737
  0.4327948572066107  0.0675648929656114  0.0675648939024132
  0.9324350544127422  0.5672050866081935  0.0675648803492757
  0.0675649503109999  0.5672050856323195  0.9324351270162611
  0.9324350724099292  0.4327949044268075  0.9324351206138947
  0.0675649388768267  0.4327949075398957  0.0675648966189965
  0.6707658136977412  0.9970937031124575  0.9061583965612208
  0.3292341699113582  0.0029063218921947  0.9061584065793159
  0.3292341830980123  0.9970936870028894  0.0938416118277899
  0.6707658137669142  0.0029063013626183  0.0938416068541045
  0.9061583759782433  0.6707656328518613  0.9970936778528774
  0.9061583843673178  0.3292343544043098  0.0029063164341963
  0.0938416307939916  0.3292343663832810  0.9970936928594568
  0.0938416301155786  0.6707656269550016  0.0029063275199600
  0.9970937019531354  0.9061583135623349  0.6707655733238255
  0.0029063095199836  0.9061583192990745  0.3292344166770460
  0.9970937003833799  0.0938416932833586  0.3292344240429423
  0.0029063059796430  0.0938416968828788  0.6707655644553554
  0.9970937254394749  0.6707656961462075  0.9061583464381217
  0.0029062964091071  0.3292342893604310  0.9061583538491988
  0.9970937115647435  0.3292343007132749  0.0938416610798133
  0.0029062785912731  0.6707656927542919  0.0938416609404935
  0.6707657925240625  0.9061584209176490  0.9970937072431457
  0.3292341935296377  0.9061584290090647  0.0029062846713949
  0.3292342045446497  0.0938415869740592  0.9970937276552388
  0.6707657877842456  0.0938415861337012  0.0029062955155411
  0.9061583414379591  0.9970936891361510  0.6707655422871960
  0.9061583506811215  0.0029063156880213  0.3292344460534745
  0.0938416669302151  0.9970936896038260  0.3292344563866962
  0.0938416677096645  0.0029063185300422  0.6707655345816050
  0.0942198390339907  0.0942197903925622  0.4058475733194485
  0.9057801782969632  0.9057802249922957  0.4058475732575645
  0.9057801698607755  0.0942197870236934  0.5941524176455376
  0.0942198387716293  0.9057802229639795  0.5941524191630853
  0.4058475024582506  0.0942197768244673  0.0942197756731122
  0.4058474964729351  0.9057802383163590  0.9057802464691900
  0.5941524932180795  0.9057802118392007  0.0942197503104805
  0.5941524902057953  0.0942197948700296  0.9057802553974574
  0.0942198332240247  0.4058475603379680  0.0942197756398745
  0.9057801786343039  0.4058475552417027  0.9057802430912041
  0.0942198485877155  0.5941524332292067  0.9057802517673113
  0.9057801549322121  0.5941524351215471  0.0942197535235323
  0.1892666094564421  0.4894959257987950  0.8107337764209771
  0.8107334370869473  0.5105040485092099  0.8107337440342229
  0.8107333961748118  0.4894959355239525  0.1892662342196868
  0.1892665726041916  0.5105040456444516  0.1892662735148068
  0.8107334372412403  0.1892663971555394  0.4894962460932122
  0.8107334443593744  0.8107336155280614  0.5105037368519550
  0.1892665787441321  0.8107336181735711  0.4894962508211988
  0.1892665727009358  0.1892664028003913  0.5105037196394607
  0.4894959357163393  0.8107335721004180  0.1892662889416752
  0.5105040429009502  0.8107336149099111  0.8107336900494014
  0.4894959275007678  0.1892664436938511  0.8107337299455415
  0.5105040408089166  0.1892663990014445  0.1892663303693332
  0.3652234260425604  0.7199412688848937  0.0064314137096112
  0.6347765811782385  0.2800587582213024  0.0064314282391441
  0.6347765751474037  0.7199412538036332  0.9935684688394407
  0.3652234289882443  0.2800587498939200  0.9935686346349124
  0.0064314392695968  0.3652234250781274  0.7199411831352108
  0.0064314129214970  0.6347765832140985  0.2800588439848717
  0.9935685698957981  0.6347765789893646  0.7199411670307513
  0.9935685220902274  0.3652234233382770  0.2800588351220820
  0.7199409079649417  0.0064314606227285  0.3652232734656510
  0.2800591232581874  0.0064314750064457  0.6347767313206228
  0.7199408914372886  0.9935685180159080  0.6347767245172451
  0.2800591111400727  0.9935684884554090  0.3652232804727340
  0.7199410130449471  0.3652233079368539  0.0064314290840903
  0.2800590144718825  0.6347766990615216  0.0064314258623711
  0.7199409972670614  0.6347766940774560  0.9935684623384190
  0.2800590060962246  0.3652233116654795  0.9935686268682701
  0.3652234746119124  0.0064314836374521  0.7199413187997411
  0.6347765363650655  0.0064314547315357  0.2800587062434919
  0.6347765277612906  0.9935685235535553  0.7199412995854456
  0.3652234757725867  0.9935684803355747  0.2800587028732875
  0.0064314344988677  0.7199409782167154  0.3652233263196719
  0.0064314445780761  0.2800590504569666  0.6347766802246331
  0.9935685536003013  0.7199409653247719  0.6347766757685269
  0.9935685150561101  0.2800590352728394  0.3652233279488336
  0.1347119449805955  0.7800879004675765  0.0070994084446580
  0.8652880464737858  0.2199120719911613  0.0070994029305811
  0.8652880471531905  0.7800879122898124  0.9929005956117071
  0.1347119554197816  0.2199120951077712  0.9929005298231754
  0.0070994700211510  0.1347120726362206  0.7800878613223394
  0.0070994739674075  0.8652879195134092  0.2199121103723290
  0.9929005071296326  0.8652879211749601  0.7800878757255283
  0.9929005030417625  0.1347120794584107  0.2199121276380500
  0.7800882335686626  0.0070995036389555  0.1347121745187961
  0.2199117427593158  0.0070995149589733  0.8652878144212521
  0.7800882374331615  0.9929004649213544  0.8652878159632754
  0.2199117647173310  0.9929004562984770  0.1347121874979820
  0.7800881672947622  0.1347120736943641  0.0070993939784549
  0.2199118054511424  0.8652879174015435  0.0070993880887790
  0.7800881771640695  0.8652879195787001  0.9929006097608915
  0.2199118266677362  0.1347120852362483  0.9929005455393149
  0.1347119415512554  0.0070995127163121  0.7800877769410735
  0.8652880534865505  0.0070995112952622  0.2199121933066683
  0.8652880500415189  0.9929004563774523  0.7800877901937329
  0.1347119511754143  0.9929004589532983  0.2199122157854661
  0.0070994530905393  0.7800880734378348  0.1347121755488687
  0.0070994606430162  0.2199118998100049  0.8652878150305494
  0.9929005246300144  0.7800880831357166  0.8652878185639963
  0.9929005129446449  0.2199119190888916  0.1347121833092849
  0.2026547466262449  0.7027136681621569  0.0063825824094710
  0.7973452626477521  0.2972863188274881  0.0063825804268034
  0.7973452564747182  0.7027136715398187  0.9936173730468595
  0.2026547491293930  0.2972863315962998  0.9936174199244319
  0.0063826097870532  0.2026547938048001  0.7027136065622842
  0.0063826071427811  0.7973452166917731  0.2972863799385831
  0.9936173834860992  0.7973452123541049  0.7027136116549938
  0.9936173636182092  0.2026547912871611  0.2972863888253465
  0.7027137353184946  0.0063826320342241  0.2026546932327135
  0.2972862556453453  0.0063826539081443  0.7973453138453042
  0.7027137328219839  0.9936173482549318  0.7973453063283455
  0.2972862669127371  0.9936173215110815  0.2026546996874408
  0.7027137394458761  0.2026546860071738  0.0063825752669158
  0.2972862479425040  0.7973453231883630  0.0063825651393227
  0.7027137412374784  0.7973453178769254  0.9936173840595667
  0.2972862593909790  0.2026546890282944  0.9936174326134851
  0.2026547839928376  0.0063826489126795  0.7027136097816130
  0.7973452290649397  0.0063826409523985  0.2972863752182890
  0.7973452206795174  0.9936173392180534  0.7027136129415846
  0.2026547844130012  0.9936173264693670  0.2972863892383556
  0.0063825837161527  0.7027136620541066  0.2026547443175896
  0.0063826022893183  0.2972863260767707  0.7973452644966559
  0.9936174017899743  0.7027136647993942  0.7973452593840852
  0.9936173724409078  0.2972863346278715  0.2026547454767679
  0.2675278987380123  0.9933790302777614  0.3145942170830207
  0.7324721162602059  0.0066209211991446  0.3145942089678049
  0.7324721052895568  0.9933790563251720  0.6854057876371660
  0.2675279019764216  0.0066209360176573  0.6854057927915763
  0.3145942717454958  0.2675276998042682  0.9933791625909422
  0.3145942673394453  0.7324723142980150  0.0066208633314720
  0.6854057321829938  0.7324723061339865  0.9933790467041169
  0.6854057368246441  0.2675277000235278  0.0066208733449079
  0.9933790709744831  0.3145942942903650  0.2675277527668606
  0.0066208935421192  0.3145942943668096  0.7324722595592382
  0.9933791094876028  0.6854057077468306  0.7324722511563082
  0.0066208742757857  0.6854057107381140  0.2675277544453418
  0.9933790670171496  0.2675278617435138  0.3145942500188058
  0.0066208861013223  0.7324721477078820  0.3145942471976176
  0.9933791004829223  0.7324721407867110  0.6854057533527664
  0.0066208966657329  0.2675278679240602  0.6854057562060765
  0.2675278375765580  0.3145942164115988  0.9933791576665810
  0.7324721762392105  0.3145942111535447  0.0066208744951016
  0.7324721672501033  0.6854057892602243  0.9933790425395694
  0.2675278382368666  0.6854057927788965  0.0066208705568603
  0.3145943042305970  0.9933790261763455  0.2675276787714983
  0.3145943014400207  0.0066209402575873  0.7324723370900493
  0.6854056988368465  0.9933790596889248  0.7324723260810083
  0.6854057064591339  0.0066209177603149  0.2675276751397415
  0.6521470847057964  0.9957406985145418  0.8479294784792398
  0.3478529014217625  0.0042593275860745  0.8479294894400798
  0.3478529131704945  0.9957406704748933  0.1520705286169908
  0.6521470871178439  0.0042592993844811  0.1520705250016156
  0.8479293644799623  0.6521469511445923  0.9957406909961251
  0.8479293727990256  0.3478530378028696  0.0042592833891375
  0.1520706413923149  0.3478530495642375  0.9957407276226787
  0.1520706420537191  0.6521469475097637  0.0042592946501712
  0.9957407088554456  0.8479293279879248  0.6521469153531374
  0.0042592985129889  0.8479293338432988  0.3478530753813326
  0.9957406995249120  0.1520706775304243  0.3478530832676612
  0.0042592945904135  0.1520706829583378  0.6521469096855403
  0.9957407357112957  0.6521470054106098  0.8479294097420816
  0.0042592869438436  0.3478529830207003  0.8479294181577777
  0.9957407092761725  0.3478529924298501  0.1520705964403507
  0.0042592616202874  0.6521470032034068  0.1520705973246771
  0.6521470669702043  0.8479294699951305  0.9957407065664793
  0.3478529207354217  0.8479294779069457  0.0042592652023496
  0.3478529313084103  0.1520705372392848  0.9957407467719187
  0.6521470647774388  0.1520705376036417  0.0042592812617553
  0.8479293152060096  0.9957406836092364  0.6521468858724224
  0.8479293242550875  0.0042593145349456  0.3478531021957131
  0.1520706917895164  0.9957406805470647  0.3478531142525413
  0.1520706945120152  0.0042593177820796  0.6521468818857205
  0.1518815203667894  0.4940934043481631  0.8481187904445958
  0.8481185177900397  0.5059065753600879  0.8481187663783317
  0.8481184848703983  0.4940934105410584  0.1518812193268870
  0.1518814913066544  0.5059065789247155  0.1518812505595645
  0.8481185317584425  0.1518813407663844  0.4940935340736392
  0.8481185380500202  0.8481186722034855  0.5059064510027999
  0.1518814833275625  0.8481186738538585  0.4940935372078535
  0.1518814782623251  0.1518813449800835  0.5059064462975712
  0.4940934190272895  0.8481186195817823  0.1518812672666545
  0.5059065645132028  0.8481186543371335  0.8481187195484390
  0.4940934124023840  0.1518813940709071  0.8481187492687277
  0.5059065690404622  0.1518813590085161  0.1518813001984591
  0.7675962564665083  0.9929963013517783  0.8146474534262051
  0.2324037316874581  0.0070036836980742  0.8146474555474237
  0.2324037442967285  0.9929962870399812  0.1853525504109788
  0.7675962587288222  0.0070036705268217  0.1853525405764072
  0.8146475944586811  0.7675960891515854  0.9929963933659577
  0.8146475970172754  0.2324039015587590  0.0070035846391904
  0.1853524086971920  0.2324039157308384  0.9929963776894704
  0.1853524016751257  0.7675960849747915  0.0070035854921175
  0.9929963488949844  0.8146474961313834  0.7675960261134022
  0.0070036340086045  0.8146474976605905  0.2324039658884492
  0.9929963349688198  0.1853525049248801  0.2324039755536595
  0.0070036362434324  0.1853525018183574  0.7675960200033315
  0.9929963583540908  0.7675961439215374  0.8146474426000095
  0.0070036316581120  0.2324038466054617  0.8146474426449398
  0.9929963399888505  0.2324038565488272  0.1853525597119887
  0.0070036224196338  0.7675961408560279  0.1853525551719614
  0.7675962383801691  0.8146475261930270  0.9929964002435342
  0.2324037511251597  0.8146475274393198  0.0070035754862952
  0.2324037638563992  0.1853524789525103  0.9929963854260601
  0.7675962358107861  0.1853524708603965  0.0070035804670662
  0.8146475837698224  0.9929962966643219  0.7675959961521610
  0.8146475901496145  0.0070036748954653  0.2324039926068882
  0.1853524180734728  0.9929962888887822  0.2324040074267320
  0.1853524121759336  0.0070036819702861  0.7675959917744981
  0.6195898207206462  0.0000000035794860  0.0000000032879379
  0.3804101715921397  0.0000000071945631  0.0000000086504370
  0.0000000024301664  0.6195897501235718  0.0000000040910467
  0.0000000060876074  0.3804102425747061  0.0000000068844680
  0.0000000041405971  0.0000000047365108  0.6195896977299573
  0.0000000080735080  0.0000000064428255  0.3804102949920542
  0.1199251259912184  0.0000000088329886  0.4999999983123929
  0.8800748873654205  0.0000000069271225  0.4999999940418557
  0.4999999976143791  0.1199250435982985  0.0000000217335300
  0.4999999944173264  0.8800749682012852 -0.0000000042536054
  0.9999999917867913  0.4999999972719842  0.1199250507453009
  0.0000000176835830  0.4999999947139217  0.8800749614012344
  0.0000000055467981  0.1199250984622196  0.4999999970716263
  0.0000000104301448  0.8800749145147418  0.4999999950449990
  0.1199251056552902  0.4999999979577379  0.0000000186624886
  0.8800749028405270  0.4999999949024226  0.9999999955606494
  0.4999999987221432  0.9999999925405988  0.1199250296543462
  0.4999999936094390  0.0000000216511300  0.8800749843469916

  0.00000000E+00  0.00000000E+00  0.00000000E+00
  0.00000000E+00  0.00000000E+00  0.00000000E+00
  0.00000000E+00  0.00000000E+00  0.00000000E+00
  0.00000000E+00  0.00000000E+00  0.00000000E+00
  0.00000000E+00  0.00000000E+00  0.00000000E+00
  0.00000000E+00  0.00000000E+00  0.00000000E+00
  0.00000000E+00  0.00000000E+00  0.00000000E+00
  0.00000000E+00  0.00000000E+00  0.00000000E+00
  0.00000000E+00  0.00000000E+00  0.00000000E+00
  0.00000000E+00  0.00000000E+00  0.00000000E+00
  0.00000000E+00  0.00000000E+00  0.00000000E+00
  0.00000000E+00  0.00000000E+00  0.00000000E+00
  0.00000000E+00  0.00000000E+00  0.00000000E+00
  0.00000000E+00  0.00000000E+00  0.00000000E+00
  0.00000000E+00  0.00000000E+00  0.00000000E+00
  0.00000000E+00  0.00000000E+00  0.00000000E+00
  0.00000000E+00  0.00000000E+00  0.00000000E+00
  0.00000000E+00  0.00000000E+00  0.00000000E+00
  0.00000000E+00  0.00000000E+00  0.00000000E+00
  0.00000000E+00  0.00000000E+00  0.00000000E+00
  0.00000000E+00  0.00000000E+00  0.00000000E+00
  0.00000000E+00  0.00000000E+00  0.00000000E+00
  0.00000000E+00  0.00000000E+00  0.00000000E+00
  0.00000000E+00  0.00000000E+00  0.00000000E+00
  0.00000000E+00  0.00000000E+00  0.00000000E+00
  0.00000000E+00  0.00000000E+00  0.00000000E+00
  0.00000000E+00  0.00000000E+00  0.00000000E+00
  0.00000000E+00  0.00000000E+00  0.00000000E+00
  0.00000000E+00  0.00000000E+00  0.00000000E+00
  0.00000000E+00  0.00000000E+00  0.00000000E+00
  0.00000000E+00  0.00000000E+00  0.00000000E+00
  0.00000000E+00  0.00000000E+00  0.00000000E+00
  0.00000000E+00  0.00000000E+00  0.00000000E+00
  0.00000000E+00  0.00000000E+00  0.00000000E+00
  0.00000000E+00  0.00000000E+00  0.00000000E+00
  0.00000000E+00  0.00000000E+00  0.00000000E+00
  0.00000000E+00  0.00000000E+00  0.00000000E+00
  0.00000000E+00  0.00000000E+00  0.00000000E+00
  0.00000000E+00  0.00000000E+00  0.00000000E+00
  0.00000000E+00  0.00000000E+00  0.00000000E+00
  0.00000000E+00  0.00000000E+00  0.00000000E+00
  0.00000000E+00  0.00000000E+00  0.00000000E+00
  0.00000000E+00  0.00000000E+00  0.00000000E+00
  0.00000000E+00  0.00000000E+00  0.00000000E+00
  0.00000000E+00  0.00000000E+00  0.00000000E+00
  0.00000000E+00  0.00000000E+00  0.00000000E+00
  0.00000000E+00  0.00000000E+00  0.00000000E+00
  0.00000000E+00  0.00000000E+00  0.00000000E+00
  0.00000000E+00  0.00000000E+00  0.00000000E+00
  0.00000000E+00  0.00000000E+00  0.00000000E+00
  0.00000000E+00  0.00000000E+00  0.00000000E+00
  0.00000000E+00  0.00000000E+00  0.00000000E+00
  0.00000000E+00  0.00000000E+00  0.00000000E+00
  0.00000000E+00  0.00000000E+00  0.00000000E+00
  0.00000000E+00  0.00000000E+00  0.00000000E+00
  0.00000000E+00  0.00000000E+00  0.00000000E+00
  0.00000000E+00  0.00000000E+00  0.00000000E+00
  0.00000000E+00  0.00000000E+00  0.00000000E+00
  0.00000000E+00  0.00000000E+00  0.00000000E+00
  0.00000000E+00  0.00000000E+00  0.00000000E+00
  0.00000000E+00  0.00000000E+00  0.00000000E+00
  0.00000000E+00  0.00000000E+00  0.00000000E+00
  0.00000000E+00  0.00000000E+00  0.00000000E+00
  0.00000000E+00  0.00000000E+00  0.00000000E+00
  0.00000000E+00  0.00000000E+00  0.00000000E+00
  0.00000000E+00  0.00000000E+00  0.00000000E+00
  0.00000000E+00  0.00000000E+00  0.00000000E+00
  0.00000000E+00  0.00000000E+00  0.00000000E+00
  0.00000000E+00  0.00000000E+00  0.00000000E+00
  0.00000000E+00  0.00000000E+00  0.00000000E+00
  0.00000000E+00  0.00000000E+00  0.00000000E+00
  0.00000000E+00  0.00000000E+00  0.00000000E+00
  0.00000000E+00  0.00000000E+00  0.00000000E+00
  0.00000000E+00  0.00000000E+00  0.00000000E+00
  0.00000000E+00  0.00000000E+00  0.00000000E+00
  0.00000000E+00  0.00000000E+00  0.00000000E+00
  0.00000000E+00  0.00000000E+00  0.00000000E+00
  0.00000000E+00  0.00000000E+00  0.00000000E+00
  0.00000000E+00  0.00000000E+00  0.00000000E+00
  0.00000000E+00  0.00000000E+00  0.00000000E+00
  0.00000000E+00  0.00000000E+00  0.00000000E+00
  0.00000000E+00  0.00000000E+00  0.00000000E+00
  0.00000000E+00  0.00000000E+00  0.00000000E+00
  0.00000000E+00  0.00000000E+00  0.00000000E+00
  0.00000000E+00  0.00000000E+00  0.00000000E+00
  0.00000000E+00  0.00000000E+00  0.00000000E+00
  0.00000000E+00  0.00000000E+00  0.00000000E+00
  0.00000000E+00  0.00000000E+00  0.00000000E+00
  0.00000000E+00  0.00000000E+00  0.00000000E+00
  0.00000000E+00  0.00000000E+00  0.00000000E+00
  0.00000000E+00  0.00000000E+00  0.00000000E+00
  0.00000000E+00  0.00000000E+00  0.00000000E+00
  0.00000000E+00  0.00000000E+00  0.00000000E+00
  0.00000000E+00  0.00000000E+00  0.00000000E+00
  0.00000000E+00  0.00000000E+00  0.00000000E+00
  0.00000000E+00  0.00000000E+00  0.00000000E+00
  0.00000000E+00  0.00000000E+00  0.00000000E+00
  0.00000000E+00  0.00000000E+00  0.00000000E+00
  0.00000000E+00  0.00000000E+00  0.00000000E+00
  0.00000000E+00  0.00000000E+00  0.00000000E+00
  0.00000000E+00  0.00000000E+00  0.00000000E+00
  0.00000000E+00  0.00000000E+00  0.00000000E+00
  0.00000000E+00  0.00000000E+00  0.00000000E+00
  0.00000000E+00  0.00000000E+00  0.00000000E+00
  0.00000000E+00  0.00000000E+00  0.00000000E+00
  0.00000000E+00  0.00000000E+00  0.00000000E+00
  0.00000000E+00  0.00000000E+00  0.00000000E+00
  0.00000000E+00  0.00000000E+00  0.00000000E+00
  0.00000000E+00  0.00000000E+00  0.00000000E+00
  0.00000000E+00  0.00000000E+00  0.00000000E+00
  0.00000000E+00  0.00000000E+00  0.00000000E+00
  0.00000000E+00  0.00000000E+00  0.00000000E+00
  0.00000000E+00  0.00000000E+00  0.00000000E+00
  0.00000000E+00  0.00000000E+00  0.00000000E+00
  0.00000000E+00  0.00000000E+00  0.00000000E+00
  0.00000000E+00  0.00000000E+00  0.00000000E+00
  0.00000000E+00  0.00000000E+00  0.00000000E+00
  0.00000000E+00  0.00000000E+00  0.00000000E+00
  0.00000000E+00  0.00000000E+00  0.00000000E+00
  0.00000000E+00  0.00000000E+00  0.00000000E+00
  0.00000000E+00  0.00000000E+00  0.00000000E+00
  0.00000000E+00  0.00000000E+00  0.00000000E+00
  0.00000000E+00  0.00000000E+00  0.00000000E+00
  0.00000000E+00  0.00000000E+00  0.00000000E+00
  0.00000000E+00  0.00000000E+00  0.00000000E+00
  0.00000000E+00  0.00000000E+00  0.00000000E+00
  0.00000000E+00  0.00000000E+00  0.00000000E+00
  0.00000000E+00  0.00000000E+00  0.00000000E+00
  0.00000000E+00  0.00000000E+00  0.00000000E+00
  0.00000000E+00  0.00000000E+00  0.00000000E+00
  0.00000000E+00  0.00000000E+00  0.00000000E+00
  0.00000000E+00  0.00000000E+00  0.00000000E+00
  0.00000000E+00  0.00000000E+00  0.00000000E+00
  0.00000000E+00  0.00000000E+00  0.00000000E+00
  0.00000000E+00  0.00000000E+00  0.00000000E+00
  0.00000000E+00  0.00000000E+00  0.00000000E+00
  0.00000000E+00  0.00000000E+00  0.00000000E+00
  0.00000000E+00  0.00000000E+00  0.00000000E+00
  0.00000000E+00  0.00000000E+00  0.00000000E+00
  0.00000000E+00  0.00000000E+00  0.00000000E+00
  0.00000000E+00  0.00000000E+00  0.00000000E+00
  0.00000000E+00  0.00000000E+00  0.00000000E+00
  0.00000000E+00  0.00000000E+00  0.00000000E+00
  0.00000000E+00  0.00000000E+00  0.00000000E+00
  0.00000000E+00  0.00000000E+00  0.00000000E+00
  0.00000000E+00  0.00000000E+00  0.00000000E+00
  0.00000000E+00  0.00000000E+00  0.00000000E+00
  0.00000000E+00  0.00000000E+00  0.00000000E+00
  0.00000000E+00  0.00000000E+00  0.00000000E+00
  0.00000000E+00  0.00000000E+00  0.00000000E+00
  0.00000000E+00  0.00000000E+00  0.00000000E+00
  0.00000000E+00  0.00000000E+00  0.00000000E+00
  0.00000000E+00  0.00000000E+00  0.00000000E+00
  0.00000000E+00  0.00000000E+00  0.00000000E+00
  0.00000000E+00  0.00000000E+00  0.00000000E+00
  0.00000000E+00  0.00000000E+00  0.00000000E+00
  0.00000000E+00  0.00000000E+00  0.00000000E+00
  0.00000000E+00  0.00000000E+00  0.00000000E+00
  0.00000000E+00  0.00000000E+00  0.00000000E+00
  0.00000000E+00  0.00000000E+00  0.00000000E+00
  0.00000000E+00  0.00000000E+00  0.00000000E+00
  0.00000000E+00  0.00000000E+00  0.00000000E+00
  0.00000000E+00  0.00000000E+00  0.00000000E+00
  0.00000000E+00  0.00000000E+00  0.00000000E+00
  0.00000000E+00  0.00000000E+00  0.00000000E+00
  0.00000000E+00  0.00000000E+00  0.00000000E+00
  0.00000000E+00  0.00000000E+00  0.00000000E+00
  0.00000000E+00  0.00000000E+00  0.00000000E+00
  0.00000000E+00  0.00000000E+00  0.00000000E+00
  0.00000000E+00  0.00000000E+00  0.00000000E+00
  0.00000000E+00  0.00000000E+00  0.00000000E+00
  0.00000000E+00  0.00000000E+00  0.00000000E+00
  0.00000000E+00  0.00000000E+00  0.00000000E+00
  0.00000000E+00  0.00000000E+00  0.00000000E+00
  0.00000000E+00  0.00000000E+00  0.00000000E+00
  0.00000000E+00  0.00000000E+00  0.00000000E+00
  0.00000000E+00  0.00000000E+00  0.00000000E+00
  0.00000000E+00  0.00000000E+00  0.00000000E+00
  0.00000000E+00  0.00000000E+00  0.00000000E+00
  0.00000000E+00  0.00000000E+00  0.00000000E+00
  0.00000000E+00  0.00000000E+00  0.00000000E+00
  0.00000000E+00  0.00000000E+00  0.00000000E+00
  0.00000000E+00  0.00000000E+00  0.00000000E+00
  0.00000000E+00  0.00000000E+00  0.00000000E+00
  0.00000000E+00  0.00000000E+00  0.00000000E+00
  0.00000000E+00  0.00000000E+00  0.00000000E+00
  0.00000000E+00  0.00000000E+00  0.00000000E+00
  0.00000000E+00  0.00000000E+00  0.00000000E+00
  0.00000000E+00  0.00000000E+00  0.00000000E+00
  0.00000000E+00  0.00000000E+00  0.00000000E+00
  0.00000000E+00  0.00000000E+00  0.00000000E+00
  0.00000000E+00  0.00000000E+00  0.00000000E+00
  0.00000000E+00  0.00000000E+00  0.00000000E+00
  0.00000000E+00  0.00000000E+00  0.00000000E+00
  0.00000000E+00  0.00000000E+00  0.00000000E+00
  0.00000000E+00  0.00000000E+00  0.00000000E+00
  0.00000000E+00  0.00000000E+00  0.00000000E+00
  0.00000000E+00  0.00000000E+00  0.00000000E+00
  0.00000000E+00  0.00000000E+00  0.00000000E+00
  0.00000000E+00  0.00000000E+00  0.00000000E+00
  0.00000000E+00  0.00000000E+00  0.00000000E+00
  0.00000000E+00  0.00000000E+00  0.00000000E+00
  0.00000000E+00  0.00000000E+00  0.00000000E+00
  0.00000000E+00  0.00000000E+00  0.00000000E+00
  0.00000000E+00  0.00000000E+00  0.00000000E+00
  0.00000000E+00  0.00000000E+00  0.00000000E+00
  0.00000000E+00  0.00000000E+00  0.00000000E+00
  0.00000000E+00  0.00000000E+00  0.00000000E+00
  0.00000000E+00  0.00000000E+00  0.00000000E+00
  0.00000000E+00  0.00000000E+00  0.00000000E+00
  0.00000000E+00  0.00000000E+00  0.00000000E+00
  0.00000000E+00  0.00000000E+00  0.00000000E+00
  0.00000000E+00  0.00000000E+00  0.00000000E+00
  0.00000000E+00  0.00000000E+00  0.00000000E+00
  0.00000000E+00  0.00000000E+00  0.00000000E+00
  0.00000000E+00  0.00000000E+00  0.00000000E+00
  0.00000000E+00  0.00000000E+00  0.00000000E+00
  0.00000000E+00  0.00000000E+00  0.00000000E+00
  0.00000000E+00  0.00000000E+00  0.00000000E+00
  0.00000000E+00  0.00000000E+00  0.00000000E+00
  0.00000000E+00  0.00000000E+00  0.00000000E+00
  0.00000000E+00  0.00000000E+00  0.00000000E+00
  0.00000000E+00  0.00000000E+00  0.00000000E+00
  0.00000000E+00  0.00000000E+00  0.00000000E+00
  0.00000000E+00  0.00000000E+00  0.00000000E+00
  0.00000000E+00  0.00000000E+00  0.00000000E+00
  0.00000000E+00  0.00000000E+00  0.00000000E+00
  0.00000000E+00  0.00000000E+00  0.00000000E+00
  0.00000000E+00  0.00000000E+00  0.00000000E+00
  0.00000000E+00  0.00000000E+00  0.00000000E+00
  0.00000000E+00  0.00000000E+00  0.00000000E+00
  0.00000000E+00  0.00000000E+00  0.00000000E+00
  0.00000000E+00  0.00000000E+00  0.00000000E+00
  0.00000000E+00  0.00000000E+00  0.00000000E+00
  0.00000000E+00  0.00000000E+00  0.00000000E+00
  0.00000000E+00  0.00000000E+00  0.00000000E+00
  0.00000000E+00  0.00000000E+00  0.00000000E+00
  0.00000000E+00  0.00000000E+00  0.00000000E+00
  0.00000000E+00  0.00000000E+00  0.00000000E+00