Created_with_HORTON                     
   1.0068361011904372     
    14.6705495329699467    0.0000000131911441   -0.0000000270465685
    -0.0000000240179633   14.6705495390032112    0.0000000306493924
     0.0000000285641518   -0.0000000288322864   20.7449190250899278
   H    C    Zr   O 
    56    96    12    64
Direct
  0.8579622300454217  0.8724242007411945  0.7199623460153984
  0.5851759810425645  0.1452172847554469  0.9928002165958538
  0.6275758074764992  0.3579622077366714  0.7800376516952171
  0.1452172846298834  0.4148240277042324  0.0071999601340281
  0.1420377685593516  0.8724241975369461  0.7199623389329078
  0.7127557618536602  0.7272231633529610  0.8652131607701523
  0.6420378131922662  0.3724242063920675  0.2199623544563754
  0.2727768211135281  0.7127557402442403  0.1347868415595462
  0.3579621917940194  0.6275757907998253  0.2199623627189475
  0.3724241905857482  0.3579622122564390  0.7800376466023856
  0.6882978161907588  0.5000000007339420  0.5941338476451673
  0.3724241676547785  0.6420377715949944  0.7800376314538369
  0.4999999967616822  0.6882978060095615  0.4058661474892259
  0.8579622354436829  0.1275758134919875  0.7199623548208074
  0.1452172848044395  0.5851759741358828  0.0071999616312311
  0.2272231536765456  0.7872442639430947  0.6347868174612101
  0.2127557130670850  0.7727768127695371  0.3652131791888402
  0.1420377774065866  0.1275758038521716  0.7199623454238472
  0.3547827136051083  0.0851759694215187  0.5071997908593794
  0.2872442435346469  0.2727768324352402  0.8652131655490675
  0.8117021959470028 -0.0000000000171484  0.0941338523384729
  0.4148240354129948  0.1452172847142741  0.9928002087944933
  0.3579621765683678  0.3724242214759604  0.2199623648347436
  0.7727768614043774  0.2127557598616513  0.6347868349379512
  0.8724242137424518  0.1420377897409984  0.2800376568459959
  0.9148240224588148  0.6452172687224903  0.4928001976548326
  0.0851759691892388  0.3547827222983465  0.4928000279516502
  0.0000000047671309  0.8117021822382517  0.9058661556905594
  0.1275757699399167  0.1420378047099556  0.2800376539847046
  0.4148240352767342  0.8547827380690400  0.9928000279826291
  0.6452172604115428  0.9148240225249851  0.5071999644681308
  0.2872442184411866  0.7272231415429979  0.8652131536709856
  0.8547827377419451  0.5851759738161426  0.0071997837751783
  0.2727768031560077  0.2872442798024328  0.1347868409215403
  0.7727768511682210  0.7872442623873550  0.6347868247329281
  0.3117021850211499  0.4999999991679056  0.5941338520616453
  0.2272231599007607  0.2127557465377406  0.6347868268429361
  0.0000000058256041  0.1882978168403236  0.9058661537941770
  0.4999999949082843  0.3117021768842934  0.4058661576307938
  0.2127557055595037  0.2272231826473566  0.3652131775464751
  0.7127557459380313  0.2727768231683577  0.8652131717247432
  0.8724242231708164  0.8579621931805320  0.2800376642798200
  0.8547827384677137  0.4148240275375291  0.0071997824818567
  0.7872442747335474  0.7727768093297619  0.3652131775081648
  0.7872442650798609  0.2272231639791021  0.3652131750694891
  0.6420378163756091  0.6275757888326375  0.2199623494796133
  0.9148240223324242  0.3547827222551390  0.4928000230000572
  0.5851759817669319  0.8547827384041735  0.9928000358792297
  0.7272232030024209  0.7127557354766867  0.1347868355370162
  0.3547827139303945  0.9148240229854998  0.5071997816330032
  0.1882978271591695  0.0000000019028435  0.0941338447159261
  0.1275757801148776  0.8579621989696873  0.2800376587656113
  0.0851759689681400  0.6452172684797846  0.4928002024750122
  0.7272232002784754  0.2872442686411460  0.1347868359351383
  0.6452172605385897  0.0851759696668077  0.5071999738884906
  0.6275758191478008  0.6420377877813783  0.7800376389031495
  0.4178809487963703  0.0470357514980445  0.5072602681146066
  0.0470357516395785  0.4178809573997114  0.4927396257952828
  0.5821190255539100  0.9529642404202331  0.5072603667901553
  0.3523620749595286  0.6566189778307649  0.6521379362199445
  0.6927131891391805  0.6781362421536024  0.2324490853034619
  0.6781362753150871  0.6927131652336873  0.7675509062445407
  0.7397538860930511  0.2748253581242407  0.1854129876929234
  0.3218637332914142  0.3072868361735974  0.7675509127641644
  0.2602461094126130  0.2748253703297461  0.1854129917496155
  0.7397538903189852  0.7251746399070578  0.1854129878361387
  0.1476379109149725  0.1566189748170438  0.1521379518853901
  0.2602461259268841  0.7251746434592895  0.1854129927828825
  0.4529642534580119  0.9178809738244463  0.9927396293469943
  0.8523621030357518  0.8433810286034134  0.1521379568774322
  0.4529642527672455  0.0821190499300907  0.9927397320041558
  0.8433810368478235  0.8523620819501901  0.8478620516354646
  0.9178809722143958  0.5470357560181185  0.0072602615637611
  0.1566189689221422  0.1476379196655395  0.8478620496059713
  0.5470357640756340  0.9178809728765742  0.9927396337437393
  0.3042670003124935  0.0000000079586193  0.9955237722818878
  0.0821190493736719  0.4529642453079049  0.0072603615781128
  0.0000000121058948  0.3042669945107276  0.0044762144732793
  0.1927131543937927  0.1781362597097994  0.7324490802514299
  0.3072868033990796  0.3218637651375266  0.2324490944106817
  0.6957330163844949  0.0000000065971172  0.9955237882670006
  0.1781362237780816  0.1927131797745240  0.2675509232594221
  0.0000000095883068  0.6957330082600123  0.0044762197531675
  0.8218637693201433  0.8072868210676258  0.2675509276392407
  0.1476379200370575  0.8433810345893559  0.1521379540757598
  0.8072868529166446  0.8218637440411105  0.7324490794581060
  0.7251746668306777  0.7397538565932905  0.8145870122976474
  0.1566189609418422  0.8523620739761859  0.8478620452079156
  0.6476379291274490  0.6566189795181384  0.6521379396172482
  0.2748253398238639  0.2602461427860218  0.8145870166218788
  0.8433810342374102  0.1476379156811366  0.8478620566394148
  0.3523620765020227  0.3433810270567950  0.6521379468505251
  0.8523621046807536  0.1566189718514846  0.1521379539947755
  0.3433810128051878  0.3523620845668207  0.3478620615991594
  0.9178809736993204  0.4529642459112356  0.0072602607144251
  0.6566189754854739  0.6476379072875240  0.3478620513935087
  0.5470357634148139  0.0821190489287378  0.9927397363720686
  0.6958804811640872  0.7095035349314827  0.7026963430939529
  0.3041195265972834  0.2904964694360859  0.7026963497624480
  0.2904964346217729  0.3041195465322510  0.2973036606733895
  0.8042669886907517  0.4999999955648714  0.4955237743443441
  0.7095035519834686  0.6958804526516348  0.2973036534336703
  0.9053934736432094  0.4999999946424196  0.4932157222665502
  0.0821190490559651  0.5470357556773808  0.0072603624965139
  0.4999999874555239  0.9053934730009273  0.5067842623302709
  0.0946065185279325  0.4999999957801257  0.4932157294808657
  0.4999999884863047  0.0946065196740356  0.5067842739356228
  0.6958804823870378  0.2904964740683644  0.7026963549925689
  0.4999999918934501  0.8042669894697486  0.5044762120061996
  0.7095035466144454  0.3041195310020224  0.2973036547250249
  0.2904964436924711  0.6958804552577127  0.2973036602534739
  0.1781362350511192  0.8072868260597466  0.2675509269056411
  0.3041195144937847  0.7095035302201940  0.7026963371876693
  0.1958804428126606  0.2095035492456178  0.2026963569282905
  0.8041195584033447  0.7904964560653053  0.2026963595674745
  0.7904964841005991  0.8041195342146024  0.7973036423028276
  0.1957330030051199  0.4999999944274286  0.4955237859303380
  0.2095035220018305  0.1958804673737934  0.7973036431135913
  0.4053934847828637  0.0000000098754566  0.9932157274251319
  0.1927131430024435  0.8218637382672024  0.7324490718220742
  0.0000000110435076  0.4053934767497817  0.0067842608098949
  0.5946065304466286  0.0000000114937245  0.9932157375391250
  0.0000000121328831  0.5946065227303832  0.0067842642463862
  0.1958804567109495  0.7904964609900408  0.2026963600494845
  0.4999999903122912  0.1957330031596443  0.5044762302149932
  0.2095035076137880  0.8041195225353277  0.7973036346738241
  0.7904964792609712  0.1958804676886034  0.7973036512292839
  0.8072868549343274  0.1781362663281896  0.7324490883838841
  0.8041195538151825  0.2095035388659039  0.2026963557851125
  0.7602461589151734  0.7748253537205477  0.6854129732667229
  0.2397538495997484  0.2251746517917544  0.6854129760939290
  0.2251746157801927  0.2397538766898221  0.3145870265226644
  0.6476379322256686  0.3433810315015893  0.6521379494754672
  0.7748253696098626  0.7602461205990322  0.3145870253605181
  0.9529642409090496  0.4178809578217435  0.4927396229334752
  0.8218637616417885  0.1927131650520493  0.2675509233107625
  0.4178809497357318  0.9529642411251593  0.5072602629669929
  0.0470357510027034  0.5821190332815319  0.4927397248915560
  0.5821190252157724  0.0470357510300214  0.5072603719967698
  0.6781362676697371  0.3072868347835719  0.7675509184534371
  0.6566189699811366  0.3523620736903491  0.3478620557405157
  0.6927131849014837  0.3218637501252113  0.2324490870949394
  0.3072868172363215  0.6781362450659876  0.2324490934409203
  0.2748253199868509  0.7397538398691974  0.8145870051851639
  0.3218637138605490  0.6927131522412142  0.7675509000226919
  0.7748253625194955  0.2397538592929566  0.3145870233068566
  0.2251746248742265  0.7602461250412783  0.3145870278882971
  0.2397538391217964  0.7748253514861959  0.6854129663351861
  0.3433810154529517  0.6476379031154850  0.3478620583803452
  0.7602461644539891  0.2251746598246784  0.6854129837220465
  0.9529642404539956  0.5821190343942008  0.4927397220646121
  0.7251746563111541  0.2602461394864118  0.8145870228925890
  0.6196615155786805  0.6196615145503749  0.4999999968144098
  0.5000000019276848  0.5000000017880151  0.6196834479688348
  0.4999999964804593  0.4999999912756210  0.3803165548526972
  0.3803384793307695  0.3803384788852820  0.5000000057153071
  0.6196615152694688  0.3803384764431468  0.5000000033116991
  0.3803384796765177  0.6196615114951803  0.4999999992678024
  0.0000000101688674  0.0000000004802948  0.1196834481734771
  0.0000000042357908 -0.0000000005334623  0.8803165547355484
  0.1196615252675892  0.1196615174630762  0.9999999984580448
  0.8803384908025157  0.8803384833039392  0.0000000035331951
  0.1196615270550718  0.8803384845416188  0.9999999981807265
  0.8803384934151041  0.1196615173845158  0.0000000038608627
  0.3651919444800146  0.4999999982381701  0.5674000814915168
  0.6348080556957785  0.4999999986441193  0.5674000768106816
  0.4999999975834873  0.6348080484719492  0.4325999194586071
  0.4999999970805545  0.3651919357748805  0.4325999279225049
  0.8651919545056178 -0.0000000007695502  0.0674000821593668
  0.1348080684071464  0.0000000000252563  0.0674000753845345
  0.0000000065700974  0.1348080555894351  0.9325999231545004
  0.0000000064469346  0.8651919441001689  0.9325999251765731
  0.5909391989764207  0.5969598726943598  0.6707815904125348
  0.4090608063340491  0.4030401352795159  0.6707815976804867
  0.4030401244867117  0.4090607992072227  0.3292184136266428
  0.5969598679636385  0.5909391890870457  0.3292184035475390
  0.7647230709304103  0.5768176802506171  0.4970001115476539
  0.5768176769782050  0.7647230704144991  0.5029998934011434
  0.2352769225654444  0.4231823099427467  0.4970001104379878
  0.4231823070515282  0.2352769237047977  0.5029998937032325
  0.6677537742008288  0.3262337203572587  0.5939485947991201
  0.6737662779910820  0.3322462203231684  0.4060514142750839
  0.3262337005960254  0.6677537449963210  0.4060514181380776
  0.3322462412626987  0.6737662895221262  0.5939485802538036
  0.5969598647793006  0.4090607942514939  0.3292184095406550
  0.4030401238901409  0.5909391889239382  0.3292184089236910
  0.4090608043059059  0.5969598737950436  0.6707815895171504
  0.5909392012836534  0.4030401379573198  0.6707815973497177
  0.7647230700345229  0.4231823099395413  0.4970000969147963
  0.5768176767516034  0.2352769218414394  0.5029999140054077
  0.2352769206521288  0.5768176801090671  0.4970001238783139
  0.4231823066653570  0.7647230694521190  0.5029998743713404
  0.6737662836191481  0.6677537535923831  0.4060514110092900
  0.6677537655748275  0.6737662872918398  0.5939485840358512
  0.3322462378990244  0.3262337168864259  0.5939485921751150
  0.3262337045841459  0.3322462346299249  0.4060514199882039
  0.0909391968091528  0.0969598607548033  0.1707815964881512
  0.9090608193348294  0.9030401377219279  0.1707816036848063
  0.9030401460096559  0.9090608106967188  0.8292184035834005
  0.0969598598827006  0.0909391909295742  0.8292184010790985
  0.2647230807451476  0.0768176913836667  0.9970001097942599
  0.0768176951991779  0.2647230736727176  0.0029998948945213
  0.7352769347961290  0.9231823206434717  0.9970001066161948
  0.9231823250960559  0.7352769268417808  0.0029998853634288
  0.1677537754763411  0.8262337225624612  0.0939485962441559
  0.1737662790923455  0.8322462321936986  0.9060513992794742
  0.8262337190880398  0.1677537511760420  0.9060514129450302
  0.8322462646170269  0.1737662922012004  0.0939485947482705
  0.0969598557061890  0.9090608082748733  0.8292184000897331
  0.9030401433947423  0.0909391911469543  0.8292184057769472
  0.9090608174665797  0.0969598613646572  0.1707816015426578
  0.0909392012372578  0.9030401419216968  0.1707815972853028
  0.2647230824890293  0.9231823218786011  0.9970000886343529
  0.0768176967251471  0.7352769287727980  0.0029999018799971
  0.7352769356186978  0.0768176928314208  0.9970001266961230
  0.9231823259405100  0.2647230759890949  0.0029998798762482
  0.1737662839613326  0.1677537579979320  0.9060514046424096
  0.1677537624650366  0.1737662865423906  0.0939485946013269
  0.8322462577203293  0.8262337144237224  0.0939485975453493
  0.8262337227082600  0.8322462428779445  0.9060514066179968
  0.4007269573567923  0.4999999932536204  0.4503434416022739
  0.5992730384817492  0.4999999926574781  0.4503434387576649
  0.5000000004184743  0.4007269574963093  0.5496565665069624
  0.4999999999699835  0.5992730371770286  0.5496565590387058
  0.9007269669179495 -0.0000000005370067  0.9503434433567464
  0.0992730484088284 -0.0000000009811960  0.9503434369722665
  0.0000000108935051  0.9007269587419251  0.0496565625797690
  0.0000000102953166  0.0992730399879387  0.0496565616023310

  0.00000000E+00  0.00000000E+00  0.00000000E+00
  0.00000000E+00  0.00000000E+00  0.00000000E+00
  0.00000000E+00  0.00000000E+00  0.00000000E+00
  0.00000000E+00  0.00000000E+00  0.00000000E+00
  0.00000000E+00  0.00000000E+00  0.00000000E+00
  0.00000000E+00  0.00000000E+00  0.00000000E+00
  0.00000000E+00  0.00000000E+00  0.00000000E+00
  0.00000000E+00  0.00000000E+00  0.00000000E+00
  0.00000000E+00  0.00000000E+00  0.00000000E+00
  0.00000000E+00  0.00000000E+00  0.00000000E+00
  0.00000000E+00  0.00000000E+00  0.00000000E+00
  0.00000000E+00  0.00000000E+00  0.00000000E+00
  0.00000000E+00  0.00000000E+00  0.00000000E+00
  0.00000000E+00  0.00000000E+00  0.00000000E+00
  0.00000000E+00  0.00000000E+00  0.00000000E+00
  0.00000000E+00  0.00000000E+00  0.00000000E+00
  0.00000000E+00  0.00000000E+00  0.00000000E+00
  0.00000000E+00  0.00000000E+00  0.00000000E+00
  0.00000000E+00  0.00000000E+00  0.00000000E+00
  0.00000000E+00  0.00000000E+00  0.00000000E+00
  0.00000000E+00  0.00000000E+00  0.00000000E+00
  0.00000000E+00  0.00000000E+00  0.00000000E+00
  0.00000000E+00  0.00000000E+00  0.00000000E+00
  0.00000000E+00  0.00000000E+00  0.00000000E+00
  0.00000000E+00  0.00000000E+00  0.00000000E+00
  0.00000000E+00  0.00000000E+00  0.00000000E+00
  0.00000000E+00  0.00000000E+00  0.00000000E+00
  0.00000000E+00  0.00000000E+00  0.00000000E+00
  0.00000000E+00  0.00000000E+00  0.00000000E+00
  0.00000000E+00  0.00000000E+00  0.00000000E+00
  0.00000000E+00  0.00000000E+00  0.00000000E+00
  0.00000000E+00  0.00000000E+00  0.00000000E+00
  0.00000000E+00  0.00000000E+00  0.00000000E+00
  0.00000000E+00  0.00000000E+00  0.00000000E+00
  0.00000000E+00  0.00000000E+00  0.00000000E+00
  0.00000000E+00  0.00000000E+00  0.00000000E+00
  0.00000000E+00  0.00000000E+00  0.00000000E+00
  0.00000000E+00  0.00000000E+00  0.00000000E+00
  0.00000000E+00  0.00000000E+00  0.00000000E+00
  0.00000000E+00  0.00000000E+00  0.00000000E+00
  0.00000000E+00  0.00000000E+00  0.00000000E+00
  0.00000000E+00  0.00000000E+00  0.00000000E+00
  0.00000000E+00  0.00000000E+00  0.00000000E+00
  0.00000000E+00  0.00000000E+00  0.00000000E+00
  0.00000000E+00  0.00000000E+00  0.00000000E+00
  0.00000000E+00  0.00000000E+00  0.00000000E+00
  0.00000000E+00  0.00000000E+00  0.00000000E+00
  0.00000000E+00  0.00000000E+00  0.00000000E+00
  0.00000000E+00  0.00000000E+00  0.00000000E+00
  0.00000000E+00  0.00000000E+00  0.00000000E+00
  0.00000000E+00  0.00000000E+00  0.00000000E+00
  0.00000000E+00  0.00000000E+00  0.00000000E+00
  0.00000000E+00  0.00000000E+00  0.00000000E+00
  0.00000000E+00  0.00000000E+00  0.00000000E+00
  0.00000000E+00  0.00000000E+00  0.00000000E+00
  0.00000000E+00  0.00000000E+00  0.00000000E+00
  0.00000000E+00  0.00000000E+00  0.00000000E+00
  0.00000000E+00  0.00000000E+00  0.00000000E+00
  0.00000000E+00  0.00000000E+00  0.00000000E+00
  0.00000000E+00  0.00000000E+00  0.00000000E+00
  0.00000000E+00  0.00000000E+00  0.00000000E+00
  0.00000000E+00  0.00000000E+00  0.00000000E+00
  0.00000000E+00  0.00000000E+00  0.00000000E+00
  0.00000000E+00  0.00000000E+00  0.00000000E+00
  0.00000000E+00  0.00000000E+00  0.00000000E+00
  0.00000000E+00  0.00000000E+00  0.00000000E+00
  0.00000000E+00  0.00000000E+00  0.00000000E+00
  0.00000000E+00  0.00000000E+00  0.00000000E+00
  0.00000000E+00  0.00000000E+00  0.00000000E+00
  0.00000000E+00  0.00000000E+00  0.00000000E+00
  0.00000000E+00  0.00000000E+00  0.00000000E+00
  0.00000000E+00  0.00000000E+00  0.00000000E+00
  0.00000000E+00  0.00000000E+00  0.00000000E+00
  0.00000000E+00  0.00000000E+00  0.00000000E+00
  0.00000000E+00  0.00000000E+00  0.00000000E+00
  0.00000000E+00  0.00000000E+00  0.00000000E+00
  0.00000000E+00  0.00000000E+00  0.00000000E+00
  0.00000000E+00  0.00000000E+00  0.00000000E+00
  0.00000000E+00  0.00000000E+00  0.00000000E+00
  0.00000000E+00  0.00000000E+00  0.00000000E+00
  0.00000000E+00  0.00000000E+00  0.00000000E+00
  0.00000000E+00  0.00000000E+00  0.00000000E+00
  0.00000000E+00  0.00000000E+00  0.00000000E+00
  0.00000000E+00  0.00000000E+00  0.00000000E+00
  0.00000000E+00  0.00000000E+00  0.00000000E+00
  0.00000000E+00  0.00000000E+00  0.00000000E+00
  0.00000000E+00  0.00000000E+00  0.00000000E+00
  0.00000000E+00  0.00000000E+00  0.00000000E+00
  0.00000000E+00  0.00000000E+00  0.00000000E+00
  0.00000000E+00  0.00000000E+00  0.00000000E+00
  0.00000000E+00  0.00000000E+00  0.00000000E+00
  0.00000000E+00  0.00000000E+00  0.00000000E+00
  0.00000000E+00  0.00000000E+00  0.00000000E+00
  0.00000000E+00  0.00000000E+00  0.00000000E+00
  0.00000000E+00  0.00000000E+00  0.00000000E+00
  0.00000000E+00  0.00000000E+00  0.00000000E+00
  0.00000000E+00  0.00000000E+00  0.00000000E+00
  0.00000000E+00  0.00000000E+00  0.00000000E+00
  0.00000000E+00  0.00000000E+00  0.00000000E+00
  0.00000000E+00  0.00000000E+00  0.00000000E+00
  0.00000000E+00  0.00000000E+00  0.00000000E+00
  0.00000000E+00  0.00000000E+00  0.00000000E+00
  0.00000000E+00  0.00000000E+00  0.00000000E+00
  0.00000000E+00  0.00000000E+00  0.00000000E+00
  0.00000000E+00  0.00000000E+00  0.00000000E+00
  0.00000000E+00  0.00000000E+00  0.00000000E+00
  0.00000000E+00  0.00000000E+00  0.00000000E+00
  0.00000000E+00  0.00000000E+00  0.00000000E+00
  0.00000000E+00  0.00000000E+00  0.00000000E+00
  0.00000000E+00  0.00000000E+00  0.00000000E+00
  0.00000000E+00  0.00000000E+00  0.00000000E+00
  0.00000000E+00  0.00000000E+00  0.00000000E+00
  0.00000000E+00  0.00000000E+00  0.00000000E+00
  0.00000000E+00  0.00000000E+00  0.00000000E+00
  0.00000000E+00  0.00000000E+00  0.00000000E+00
  0.00000000E+00  0.00000000E+00  0.00000000E+00
  0.00000000E+00  0.00000000E+00  0.00000000E+00
  0.00000000E+00  0.00000000E+00  0.00000000E+00
  0.00000000E+00  0.00000000E+00  0.00000000E+00
  0.00000000E+00  0.00000000E+00  0.00000000E+00
  0.00000000E+00  0.00000000E+00  0.00000000E+00
  0.00000000E+00  0.00000000E+00  0.00000000E+00
  0.00000000E+00  0.00000000E+00  0.00000000E+00
  0.00000000E+00  0.00000000E+00  0.00000000E+00
  0.00000000E+00  0.00000000E+00  0.00000000E+00
  0.00000000E+00  0.00000000E+00  0.00000000E+00
  0.00000000E+00  0.00000000E+00  0.00000000E+00
  0.00000000E+00  0.00000000E+00  0.00000000E+00
  0.00000000E+00  0.00000000E+00  0.00000000E+00
  0.00000000E+00  0.00000000E+00  0.00000000E+00
  0.00000000E+00  0.00000000E+00  0.00000000E+00
  0.00000000E+00  0.00000000E+00  0.00000000E+00
  0.00000000E+00  0.00000000E+00  0.00000000E+00
  0.00000000E+00  0.00000000E+00  0.00000000E+00
  0.00000000E+00  0.00000000E+00  0.00000000E+00
  0.00000000E+00  0.00000000E+00  0.00000000E+00
  0.00000000E+00  0.00000000E+00  0.00000000E+00
  0.00000000E+00  0.00000000E+00  0.00000000E+00
  0.00000000E+00  0.00000000E+00  0.00000000E+00
  0.00000000E+00  0.00000000E+00  0.00000000E+00
  0.00000000E+00  0.00000000E+00  0.00000000E+00
  0.00000000E+00  0.00000000E+00  0.00000000E+00
  0.00000000E+00  0.00000000E+00  0.00000000E+00
  0.00000000E+00  0.00000000E+00  0.00000000E+00
  0.00000000E+00  0.00000000E+00  0.00000000E+00
  0.00000000E+00  0.00000000E+00  0.00000000E+00
  0.00000000E+00  0.00000000E+00  0.00000000E+00
  0.00000000E+00  0.00000000E+00  0.00000000E+00
  0.00000000E+00  0.00000000E+00  0.00000000E+00
  0.00000000E+00  0.00000000E+00  0.00000000E+00
  0.00000000E+00  0.00000000E+00  0.00000000E+00
  0.00000000E+00  0.00000000E+00  0.00000000E+00
  0.00000000E+00  0.00000000E+00  0.00000000E+00
  0.00000000E+00  0.00000000E+00  0.00000000E+00
  0.00000000E+00  0.00000000E+00  0.00000000E+00
  0.00000000E+00  0.00000000E+00  0.00000000E+00
  0.00000000E+00  0.00000000E+00  0.00000000E+00
  0.00000000E+00  0.00000000E+00  0.00000000E+00
  0.00000000E+00  0.00000000E+00  0.00000000E+00
  0.00000000E+00  0.00000000E+00  0.00000000E+00
  0.00000000E+00  0.00000000E+00  0.00000000E+00
  0.00000000E+00  0.00000000E+00  0.00000000E+00
  0.00000000E+00  0.00000000E+00  0.00000000E+00
  0.00000000E+00  0.00000000E+00  0.00000000E+00
  0.00000000E+00  0.00000000E+00  0.00000000E+00
  0.00000000E+00  0.00000000E+00  0.00000000E+00
  0.00000000E+00  0.00000000E+00  0.00000000E+00
  0.00000000E+00  0.00000000E+00  0.00000000E+00
  0.00000000E+00  0.00000000E+00  0.00000000E+00
  0.00000000E+00  0.00000000E+00  0.00000000E+00
  0.00000000E+00  0.00000000E+00  0.00000000E+00
  0.00000000E+00  0.00000000E+00  0.00000000E+00
  0.00000000E+00  0.00000000E+00  0.00000000E+00
  0.00000000E+00  0.00000000E+00  0.00000000E+00
  0.00000000E+00  0.00000000E+00  0.00000000E+00
  0.00000000E+00  0.00000000E+00  0.00000000E+00
  0.00000000E+00  0.00000000E+00  0.00000000E+00
  0.00000000E+00  0.00000000E+00  0.00000000E+00
  0.00000000E+00  0.00000000E+00  0.00000000E+00
  0.00000000E+00  0.00000000E+00  0.00000000E+00
  0.00000000E+00  0.00000000E+00  0.00000000E+00
  0.00000000E+00  0.00000000E+00  0.00000000E+00
  0.00000000E+00  0.00000000E+00  0.00000000E+00
  0.00000000E+00  0.00000000E+00  0.00000000E+00
  0.00000000E+00  0.00000000E+00  0.00000000E+00
  0.00000000E+00  0.00000000E+00  0.00000000E+00
  0.00000000E+00  0.00000000E+00  0.00000000E+00
  0.00000000E+00  0.00000000E+00  0.00000000E+00
  0.00000000E+00  0.00000000E+00  0.00000000E+00
  0.00000000E+00  0.00000000E+00  0.00000000E+00
  0.00000000E+00  0.00000000E+00  0.00000000E+00
  0.00000000E+00  0.00000000E+00  0.00000000E+00
  0.00000000E+00  0.00000000E+00  0.00000000E+00
  0.00000000E+00  0.00000000E+00  0.00000000E+00
  0.00000000E+00  0.00000000E+00  0.00000000E+00
  0.00000000E+00  0.00000000E+00  0.00000000E+00
  0.00000000E+00  0.00000000E+00  0.00000000E+00
  0.00000000E+00  0.00000000E+00  0.00000000E+00
  0.00000000E+00  0.00000000E+00  0.00000000E+00
  0.00000000E+00  0.00000000E+00  0.00000000E+00
  0.00000000E+00  0.00000000E+00  0.00000000E+00
  0.00000000E+00  0.00000000E+00  0.00000000E+00
  0.00000000E+00  0.00000000E+00  0.00000000E+00
  0.00000000E+00  0.00000000E+00  0.00000000E+00
  0.00000000E+00  0.00000000E+00  0.00000000E+00
  0.00000000E+00  0.00000000E+00  0.00000000E+00
  0.00000000E+00  0.00000000E+00  0.00000000E+00
  0.00000000E+00  0.00000000E+00  0.00000000E+00
  0.00000000E+00  0.00000000E+00  0.00000000E+00
  0.00000000E+00  0.00000000E+00  0.00000000E+00
  0.00000000E+00  0.00000000E+00  0.00000000E+00
  0.00000000E+00  0.00000000E+00  0.00000000E+00
  0.00000000E+00  0.00000000E+00  0.00000000E+00
  0.00000000E+00  0.00000000E+00  0.00000000E+00
  0.00000000E+00  0.00000000E+00  0.00000000E+00
  0.00000000E+00  0.00000000E+00  0.00000000E+00
  0.00000000E+00  0.00000000E+00  0.00000000E+00
  0.00000000E+00  0.00000000E+00  0.00000000E+00
  0.00000000E+00  0.00000000E+00  0.00000000E+00
  0.00000000E+00  0.00000000E+00  0.00000000E+00
  0.00000000E+00  0.00000000E+00  0.00000000E+00
  0.00000000E+00  0.00000000E+00  0.00000000E+00
  0.00000000E+00  0.00000000E+00  0.00000000E+00
  0.00000000E+00  0.00000000E+00  0.00000000E+00
  0.00000000E+00  0.00000000E+00  0.00000000E+00
  0.00000000E+00  0.00000000E+00  0.00000000E+00
  0.00000000E+00  0.00000000E+00  0.00000000E+00
  0.00000000E+00  0.00000000E+00  0.00000000E+00
