&FORCE_EVAL
  METHOD QS

  &DFT
    BASIS_SET_FILE_NAME /dodrio/scratch/users/vsc41949/bin/cp2k_data_files/BASIS_SETS
    POTENTIAL_FILE_NAME /dodrio/scratch/users/vsc41949/bin/cp2k_data_files/GTH_POTENTIALS

    CHARGE 0

    &PERIODIC_EFIELD
      INTENSITY 5.000000e-04
      POLARISATION 1.0 0.0 0.0
    &END PERIODIC_EFIELD

    &PRINT
      &MOMENTS
        FILENAME =moments.dat
        REFERENCE COAC
      &END MOMENTS
    &END PRINT

    &QS
      METHOD GPW
      EPS_DEFAULT 1.0E-10
    &END QS

    &MGRID
        CUTOFF 1000
        REL_CUTOFF 60
        NGRIDS 5
    &END MGRID

    &XC
      &XC_FUNCTIONAL PBE
        &PBE
          PARAMETRIZATION ORIG
        &END PBE
      &END XC_FUNCTIONAL
      &VDW_POTENTIAL
        POTENTIAL_TYPE PAIR_POTENTIAL
        &PAIR_POTENTIAL
          TYPE DFTD3(BJ)
          PARAMETER_FILE_NAME /dodrio/scratch/users/vsc41949/bin/cp2k_data_files/dftd3.dat
          REFERENCE_FUNCTIONAL PBE
          R_CUTOFF  25
        &END PAIR_POTENTIAL
      &END VDW_POTENTIAL
    &END XC

    &SCF
      EPS_SCF 1.0E-6
      SCF_GUESS RESTART
      MAX_SCF 25
      &OT
        MINIMIZER DIIS
        PRECONDITIONER FULL_SINGLE_INVERSE
      &END OT
      &OUTER_SCF
        EPS_SCF 1.0E-6
        MAX_SCF 5
      &END OUTER_SCF
      &PRINT
        &RESTART
          ADD_LAST SYMBOLIC
          &EACH
            MD 100
          &END EACH
        &END RESTART
      &END PRINT
    &END SCF
  &END DFT

  &SUBSYS
    &TOPOLOGY
      COORD_FILE_NAME CsPbBr3_gamma_sc-nvt.xyz
      COORD_FILE_FORMAT XYZ
    &END TOPOLOGY

    &CELL
      PERIODIC XYZ
      A   24.230588     0.000854     0.000098
      B   -0.000890    25.241811     0.000092
      C   -0.000097    -0.000079    23.534381
    &END CELL

    &KIND                         Cs
      BASIS_SET                   TZVP-MOLOPT-SR-GTH
      POTENTIAL                   GTH-PBE-q9
    &END KIND

    &KIND                         Pb
      BASIS_SET                   TZVP-MOLOPT-SR-GTH
      POTENTIAL                   GTH-PBE-q4
    &END KIND

    &KIND                         Br
      BASIS_SET                   TZVP-MOLOPT-SR-GTH
      POTENTIAL                   GTH-PBE-q7
    &END KIND
  &END SUBSYS
&END FORCE_EVAL

&GLOBAL
  PRINT_LEVEL MEDIUM
  PROJECT CsPbBr3_gamma_sc-Ex
  RUN_TYPE MD
&END GLOBAL

&MOTION
  &MD
    ENSEMBLE REFTRAJ
    STEPS 25000
    TIMESTEP 2
    &REFTRAJ
      FIRST_SNAPSHOT 9990
      LAST_SNAPSHOT 20000
      EVAL_ENERGY_FORCES
      TRAJ_FILE_NAME CsPbBr3_gamma_sc-nvt.xyz
      STRIDE 5
    &END REFTRAJ
  &END MD
&END MOTION
