Cs1 Pb1 Br3                             
  0.93759207121798027     
     8.7116800775579346    0.0000021823984520   -0.0000103497628554
     0.0000021859752322    8.7116962728571092   -0.0000020808235247
    -0.0000078589315773   -0.0000015089070011    6.4261858877989635
   Cs   Pb   Br
     2     2     6
Direct
  0.4999976558345845  0.0000002817326019  0.5000001087982421
  0.0000024209530074  0.4999988730346950  0.5000001657631677
  0.0000055476198088  0.0000020835415060  0.0000000536683695
  0.4999947349246400  0.4999975700694647  0.0000000576475354
 -0.0000007385871119 -0.0000012846950846  0.5000000269904914
  0.5000012956748925  0.4999996285572089  0.4999999397407460
  0.8166690333830895  0.3166684797695132  0.0000001997568724
  0.1833340178814764  0.6833317888470769 -0.0000003690787314
  0.6833303006652913  0.8166694819197803 -0.0000001622659680
  0.3166657167243552  0.1833330822972574 -0.0000000208619539

  0.00000000E+00  0.00000000E+00  0.00000000E+00
  0.00000000E+00  0.00000000E+00  0.00000000E+00
  0.00000000E+00  0.00000000E+00  0.00000000E+00
  0.00000000E+00  0.00000000E+00  0.00000000E+00
  0.00000000E+00  0.00000000E+00  0.00000000E+00
  0.00000000E+00  0.00000000E+00  0.00000000E+00
  0.00000000E+00  0.00000000E+00  0.00000000E+00
  0.00000000E+00  0.00000000E+00  0.00000000E+00
  0.00000000E+00  0.00000000E+00  0.00000000E+00
  0.00000000E+00  0.00000000E+00  0.00000000E+00
