Cs1 Pb1 Br3                             
  0.93946578690071836     
     8.5972929059508179    0.0003029813264699    0.0000349127107577
    -0.0003158817303089    8.9560866422932062    0.0000327503180926
    -0.0000516716239421   -0.0000418137309591   12.5254060013661181
   Cs   Pb   Br
     4     4    12
Direct
  0.9822583595576365  0.4370363645707719  0.2499998143559711
  0.0177413496583126  0.5629634900391581  0.7499997284295412
  0.4822583436965837  0.0629636437394299  0.7500001648201571
  0.5177412986196043  0.9370365293975311  0.2500002497354140
 -0.0000008558523387 -0.0000000400421662  0.4999996690113072
  0.4999991418543044  0.5000000721528985  0.5000003709916951
  0.0000005250801541 -0.0000004750263320  0.0000004867341501
  0.5000005389550845  0.5000004398457166 -0.0000005324764607
  0.1955321527575150  0.3003573403305333  0.5374958419236187
  0.8044663030586150  0.6996419968849621  0.4625044670951556
  0.6955321330928300  0.1996426822694670  0.4625042412837346
  0.3044662574859280  0.8003580056509975  0.5374955487403338
  0.8044681894247424  0.6996424318248169  0.0374958226060706
  0.1955335759722316  0.3003575406870059  0.9625044702956704
  0.3044681690951923  0.8003574962892789  0.9625040628268092
  0.6955336042177893  0.1996424252743436  0.0374955706631894
  0.9270723506457134  0.9914951033553259  0.7500003236428486
  0.0729280151315345  0.0085051255185975  0.2500002922219112
  0.4270724064068649  0.5085049276142811  0.2499996738107350
  0.5729281075213994  0.4914948855696701  0.7499997332802051

  0.00000000E+00  0.00000000E+00  0.00000000E+00
  0.00000000E+00  0.00000000E+00  0.00000000E+00
  0.00000000E+00  0.00000000E+00  0.00000000E+00
  0.00000000E+00  0.00000000E+00  0.00000000E+00
  0.00000000E+00  0.00000000E+00  0.00000000E+00
  0.00000000E+00  0.00000000E+00  0.00000000E+00
  0.00000000E+00  0.00000000E+00  0.00000000E+00
  0.00000000E+00  0.00000000E+00  0.00000000E+00
  0.00000000E+00  0.00000000E+00  0.00000000E+00
  0.00000000E+00  0.00000000E+00  0.00000000E+00
  0.00000000E+00  0.00000000E+00  0.00000000E+00
  0.00000000E+00  0.00000000E+00  0.00000000E+00
  0.00000000E+00  0.00000000E+00  0.00000000E+00
  0.00000000E+00  0.00000000E+00  0.00000000E+00
  0.00000000E+00  0.00000000E+00  0.00000000E+00
  0.00000000E+00  0.00000000E+00  0.00000000E+00
  0.00000000E+00  0.00000000E+00  0.00000000E+00
  0.00000000E+00  0.00000000E+00  0.00000000E+00
  0.00000000E+00  0.00000000E+00  0.00000000E+00
  0.00000000E+00  0.00000000E+00  0.00000000E+00
