Cs1 Pb1 Br3                             
  0.93864581581425155     
     6.3072563422345196    0.0000000000000000    0.0000000000000000
     0.0000000000000000    6.3072563422345196    0.0000000000000000
     0.0000000000000000    0.0000000000000000    6.3072563422345196
   Cs   Pb   Br
     1     1     3
Direct
  0.5000000000158806  0.5000000000158806  0.5000000000158806
  0.0000000000000000  0.0000000000000000  0.0000000000000000
  0.0000000000000000  0.0000000000000000  0.5000000000158806
  0.5000000000158806  0.0000000000000000  0.0000000000000000
  0.0000000000000000  0.5000000000158806  0.0000000000000000

  0.00000000E+00  0.00000000E+00  0.00000000E+00
  0.00000000E+00  0.00000000E+00  0.00000000E+00
  0.00000000E+00  0.00000000E+00  0.00000000E+00
  0.00000000E+00  0.00000000E+00  0.00000000E+00
  0.00000000E+00  0.00000000E+00  0.00000000E+00
